 vasp.6.4.3 19Mar24 (build Jul 09 2024 15:45:28) complex

 executed on             LinuxIFC date 2024.10.30  14:49:28

 INCAR:
   GGA = PE
   PREC = normal
   IBRION = -1
   NSW = 0

 POTCAR:    PAW_PBE Ba_sv 06Sep2000
 POTCAR:    PAW_PBE Zr_sv 04Jan2005
 POTCAR:    PAW_PBE O 08Apr2002
|           W    W    AA    RRRRR   N    N  II  N    N   GGGG   !!!           |
|           W    W   A  A   R    R  NN   N  II  NN   N  G    G  !!!           |
|           W    W  A    A  R    R  N N  N  II  N N  N  G       !!!           |
|           W WW W  AAAAAA  RRRRR   N  N N  II  N  N N  G  GGG   !            |
|           WW  WW  A    A  R   R   N   NN  II  N   NN  G    G                |
|           W    W  A    A  R    R  N    N  II  N    N   GGGG   !!!           |
|     For optimal performance we recommend to set                             |
|       NCORE = 2 up to number-of-cores-per-socket                            |
|     This setting can greatly improve the performance of VASP for DFT.       |
|     The default, NCORE=1 might be grossly inefficient on modern             |
|     multi-core architectures or massively parallel machines. Do your        |
|     Unfortunately you need to use the default for GW and RPA                |
|     calculations (for HF NCORE is supported but not extensively tested      |
|     yet).                                                                   |

   TITEL  = PAW_PBE Ba_sv 06Sep2000
   POMASS =  137.327; ZVAL   =   10.000    mass and valenz
   ENMAX  =  187.181; ENMIN  =  140.386 eV

   TITEL  = PAW_PBE Zr_sv 04Jan2005
   POMASS =   91.224; ZVAL   =   12.000    mass and valenz
   ENMAX  =  229.898; ENMIN  =  172.424 eV

   TITEL  = PAW_PBE O 08Apr2002
   POMASS =   16.000; ZVAL   =    6.000    mass and valenz
   ENMAX  =  400.000; ENMIN  =  300.000 eV

  PAW_PBE Ba_sv 06Sep2000               :
  PAW_PBE Zr_sv 04Jan2005               :
  PAW_PBE O 08Apr2002                   :

 POSCAR: Ba Zr O
  positions in cartesian coordinates

 exchange-correlation table for PE
   RHO(1)=    0.500       N(1)  =     2000
   RHO(2)=  100.500       N(2)  =     4000

 VTST: version 4.1, (05/19/21)

 CHAIN: initializing optimizer

 OPT: Using VASP Dynamics algorithm
 CHAIN: Read ICHAIN            0

 POSCAR: Ba Zr O
  positions in cartesian coordinates

 ion  position               nearest neighbor table
   1  0.000  0.000  0.000-   3 2.96   4 2.96   3 2.96   4 2.96   4 2.96   4 2.96   3 2.96   3 2.96
                             2 3.63   2 3.63   2 3.63   2 3.63   2 3.63   2 3.63   2 3.63   2 3.63
   2  0.500  0.500  0.500-   3 2.10   4 2.10   3 2.10   4 2.10   1 3.63   1 3.63   1 3.63   1 3.63
                             1 3.63   1 3.63   1 3.63   1 3.63
   3  0.500  0.000  0.500-   2 2.10   2 2.10   1 2.96   1 2.96   1 2.96   1 2.96
   4  0.000  0.500  0.500-   2 2.10   2 2.10   1 2.96   1 2.96   1 2.96   1 2.96

  LATTYP: Found a simple cubic cell.
 ALAT       =     4.1920000000

  Lattice vectors:

 A1 = (   4.1920000000,   0.0000000000,   0.0000000000)
 A2 = (   0.0000000000,   4.1920000000,   0.0000000000)
 A3 = (   0.0000000000,   0.0000000000,   4.1920000000)

Analysis of symmetry for initial positions (statically):
 Subroutine PRICEL returns:
 Original cell was already a primitive cell.

 Routine SETGRP: Setting up the symmetry group for a
 simple cubic supercell.

 Subroutine GETGRP returns: Found 16 space group operations
 (whereof 16 operations were pure point group operations)
 out of a pool of 48 trial point group operations.

The static configuration has the point symmetry D_4h.

Analysis of symmetry for dynamics (positions and initial velocities):
 Subroutine PRICEL returns:
 Original cell was already a primitive cell.

 Routine SETGRP: Setting up the symmetry group for a
 simple cubic supercell.

 Subroutine GETGRP returns: Found 16 space group operations
 (whereof 16 operations were pure point group operations)
 out of a pool of 48 trial point group operations.

The dynamic configuration has the point symmetry D_4h.

 Subroutine INISYM returns: Found 16 space group operations
 (whereof 16 operations are pure point group operations),
 and found     1 'primitive' translations

                                     Primitive cell

  volume of cell :      73.6654

  direct lattice vectors                    reciprocal lattice vectors
     4.192000000  0.000000000  0.000000000     0.238549618  0.000000000  0.000000000
     0.000000000  4.192000000  0.000000000     0.000000000  0.238549618  0.000000000
     0.000000000  0.000000000  4.192000000     0.000000000  0.000000000  0.238549618

  length of vectors
     4.192000000  4.192000000  4.192000000     0.238549618  0.238549618  0.238549618

  position of ions in fractional coordinates (direct lattice)
     0.000000000  0.000000000  0.000000000
     0.500000000  0.500000000  0.500000000
     0.500000000  0.000000000  0.500000000
     0.000000000  0.500000000  0.500000000

  ion indices of the primitive-cell ions
   primitive index   ion index
                 1           1
                 2           2
                 3           3
                 4           4

 KPOINTS: KPOINTS created by Atomic Simulation Env

Automatic generation of k-mesh.
 Grid dimensions read from file:
 generate k-points for:    1    1    1

 Generating k-lattice:

  Cartesian coordinates                     Fractional coordinates (reciprocal lattice)
     0.238549618  0.000000000  0.000000000     1.000000000  0.000000000  0.000000000
     0.000000000  0.238549618  0.000000000     0.000000000  1.000000000  0.000000000
     0.000000000  0.000000000  0.238549618     0.000000000  0.000000000  1.000000000

  Length of vectors
     0.238549618  0.238549618  0.238549618

  Shift w.r.t. Gamma in fractional coordinates (k-lattice)
     0.000000000  0.000000000  0.000000000

 Subroutine IBZKPT returns following result:

 Found      1 irreducible k-points:

 Following reciprocal coordinates:
            Coordinates               Weight
  0.000000  0.000000  0.000000      1.000000

 Following cartesian coordinates:
            Coordinates               Weight
  0.000000  0.000000  0.000000      1.000000

 SYSTEM =  unknown system
 POSCAR =  Ba Zr O

 Startparameter for this run:
   NWRITE =      2    write-flag & timer
   PREC   = normal    normal or accurate (medium, high low for compatibility)
   ISTART =      0    job   : 0-new  1-cont  2-samecut
   ICHARG =      2    charge: 1-file 2-atom 10-const
   ISPIN  =      1    spin polarized calculation?
   LNONCOLLINEAR =      F non collinear calculations
   LSORBIT =      F    spin-orbit coupling
   INIWAV =      1    electr: 0-lowe 1-rand  2-diag
   LASPH  =      F    aspherical Exc in radial PAW
 Electronic Relaxation 1
   ENCUT  =  400.0 eV  29.40 Ry    5.42 a.u.   6.84  6.84  6.84*2*pi/ulx,y,z
   ENINI  =  400.0     initial cutoff
   ENAUG  =  605.4 eV  augmentation charge cutoff
   NELM   =     60;   NELMIN=  2; NELMDL= -5     # of ELM steps
   EDIFF  = 0.1E-03   stopping-criterion for ELM
   LREAL  =      F    real-space projection
   NLSPLINE    = F    spline interpolate recip. space projectors
   LCOMPAT=      F    compatible to vasp.4.4
   GGA_COMPAT  = T    GGA compatible to vasp.4.4-vasp.4.6
   LMAXPAW     = -100 max onsite density
   LMAXMIX     =    2 max onsite mixed and CHGCAR
   VOSKOWN=      0    Vosko Wilk Nusair interpolation
   ROPT   =    0.00000   0.00000   0.00000
 Ionic relaxation
   EDIFFG = 0.1E-02   stopping-criterion for IOM
   NSW    =      0    number of steps for IOM
   NBLOCK =      1;   KBLOCK =      1    inner block; outer block
   IBRION =     -1    ionic relax: 0-MD 1-quasi-New 2-CG
   NFREE  =      0    steps in history (QN), initial steepest desc. (CG)
   ISIF   =      2    stress and relaxation
   IWAVPR =     10    prediction:  0-non 1-charg 2-wave 3-comb
   ISYM   =      2    0-nonsym 1-usesym 2-fastsym
   LCORR  =      T    Harris-Foulkes like correction to forces

   POTIM  = 0.5000    time-step for ionic-motion
   TEIN   =    0.0    initial temperature
   TEBEG  =    0.0;   TEEND  =   0.0 temperature during run
   SMASS  =  -3.00    Nose mass-parameter (am)
   estimated Nose-frequenzy (Omega)   =  0.10E-29 period in steps = 0.13E+47 mass=  -0.402E-27a.u.
   SCALEE = 1.0000    scale energy and forces
   NPACO  =    256;   APACO  = 10.0  distance and # of slots for P.C.
   PSTRESS=    0.0 pullay stress

  Mass of Ions in am
   POMASS = 137.33 91.22 16.00
  Ionic Valenz
   ZVAL   =  10.00 12.00  6.00
  Atomic Wigner-Seitz radii
  virtual crystal weights
   VCA    =   1.00  1.00  1.00
   NELECT =      34.0000    total number of electrons
   NUPDOWN=      -1.0000    fix difference up-down

 DOS related values:
   EMIN   =  10.00;   EMAX   =-10.00  energy-range for DOS
   EFERMI =   0.00;   METHOD = LEGACY
   ISMEAR =     1;   SIGMA  =   0.20  broadening in eV -4-tet -1-fermi 0-gaus

 Electronic relaxation 2 (details)
   IALGO  =     38    algorithm
   LDIAG  =      T    sub-space diagonalisation (order eigenvalues)
   LSUBROT=      F    optimize rotation matrix (better conditioning)
   TURBO    =      0    0=normal 1=particle mesh
   IRESTART =      0    0=no restart 2=restart with 2 vectors
   NREBOOT  =      0    no. of reboots
   NMIN     =      0    reboot dimension
   EREF     =   0.00    reference energy to select bands
   IMIX   =      4    mixing-type and parameters
     AMIX     =   0.40;   BMIX     =  1.00
     AMIX_MAG =   1.60;   BMIX_MAG =  1.00
     AMIN     =   0.10
     WC   =   100.;   INIMIX=   1;  MIXPRE=   1;  MAXMIX= -45

 Intra band minimization:
   WEIMIN = 0.0000     energy-eigenvalue tresh-hold
   EBREAK =  0.63E-06  absolut break condition
   DEPER  =   0.30     relativ break condition

   TIME   =   0.40     timestep for ELM

  volume/ion in A,a.u.               =      18.42       124.28
  Fermi-wavevector in a.u.,A,eV,Ry     =   1.265163  2.390812 21.777999  1.600638
  Thomas-Fermi vector in A             =   2.398431

 Write flags
   LWAVE        =      T    write WAVECAR
   LDOWNSAMPLE  =      F    k-point downsampling of WAVECAR
   LCHARG       =      T    write CHGCAR
   LVTOT        =      F    write LOCPOT, total local potential
   LVHAR        =      F    write LOCPOT, Hartree potential only
   WRT_POTENTIAL= false  ! write potential to hdf5 file
   LELF         =      F    write electronic localiz. function (ELF)
   LORBIT       =      0    0 simple, 1 ext, 2 COOP (PROOUT), +10 PAW based schemes

 Dipole corrections
   LMONO      =      F    monopole corrections only (constant potential shift)
   LDIPOL     =      F    correct potential (dipole corrections)
   IDIPOL     =      0    1-x, 2-y, 3-z, 4-all directions
   EPSILON    =  1.0000000 bulk dielectric constant
   LVACPOTAV  =      F  vacuum potentials using an averaging scheme for the charge density
   VACPOTFLAT =  0.1000000 required flatness to determine vacuum potential
 Exchange correlation treatment:
   GGA     = PE    functional components
   XC_C    = 1    coefficients multiplying the functional components
   VOSKOWN =     0    Vosko Wilk Nusair interpolation
   LHFCALC =     F    Hartree Fock is set to
   LHFONE  =     F    Hartree Fock one center treatment
   AEXX    =    0.0000 exact exchange contribution

 Parameters of functionals:
   PE:
     No parameter

 Van der Waals corrections
   IVDW    =     0    specifies the selected vdW correction

 Linear response parameters
   LEPSILON=     F    determine dielectric tensor
   LRPA    =     F    only Hartree local field effects (RPA)
   LNABLA  =     F    use nabla operator in PAW spheres
   LVEL    =     F    velocity operator in full k-point grid
   CSHIFT  =0.1000    complex shift for real part using Kramers Kronig
   OMEGAMAX=  -1.0    maximum frequency
   DEG_THRESHOLD= 0.2000000E-02 threshold for treating states as degnerate
   RTIME   =   -0.100 relaxation time in fs
  (WPLASMAI=    0.000 imaginary part of plasma frequency in eV, 0.658/RTIME)
   DFIELD  = 0.0000000 0.0000000 0.0000000 field for delta impulse in time

  Optional k-point grid parameters
   LKPOINTS_OPT  =     F    use optional k-point grid
   KPOINTS_OPT_MODE=     1    mode for optional k-point grid

 Orbital magnetization related:
   ORBITALMAG=     F  switch on orbital magnetization
   LCHIMAG   =     F  perturbation theory with respect to B field
   DQ        =  0.001000  dq finite difference perturbation B field
   LLRAUG    =     F  two centre corrections for induced B field
   LBONE     =     F  B-component reconstruction in AE one-centre
   LVGVCALC  =     T  calculate vGv susceptibility
   LVGVAPPL  =     F  apply vGv susceptibility instead of pGv for G=0

 Random number generation:
   RANDOM_GENERATOR = DEFAULT
   PCG_SEED         = not used

 Static calculation
 charge density and potential will be updated during run
 non-spin polarized calculation
 Variant of blocked Davidson
 Davidson routine will perform the subspace rotation
 perform sub-space diagonalisation
    after iterative eigenvector-optimisation
 modified Broyden-mixing scheme, WC =      100.0
 initial mixing is a Kerker type mixing with AMIX =  0.4000 and BMIX =      1.0000
 Hartree-type preconditioning will be used
 using additional bands           23
 reciprocal scheme for non local part
 use partial core corrections
 calculate Harris-corrections to forces
   (improved forces if not selfconsistent)
 use gradient corrections
 use of overlap-Matrix (Vanderbilt PP)
 Methfessel and Paxton  Order N= 1 SIGMA  =   0.20

  energy-cutoff  :      400.00
  volume of cell :       73.67
      direct lattice vectors                 reciprocal lattice vectors
     4.192000000  0.000000000  0.000000000     0.238549618  0.000000000  0.000000000
     0.000000000  4.192000000  0.000000000     0.000000000  0.238549618  0.000000000
     0.000000000  0.000000000  4.192000000     0.000000000  0.000000000  0.238549618

[...]

 k-points in units of 2pi/SCALE and weight: KPOINTS created by Atomic Simulation Env
   0.00000000  0.00000000  0.00000000       1.000

 k-points in reciprocal lattice and weights: KPOINTS created by Atomic Simulation Env
   0.00000000  0.00000000  0.00000000       1.000

 position of ions in fractional coordinates (direct lattice)
   0.00000000  0.00000000  0.00000000
   0.50000000  0.50000000  0.50000000
   0.50000000  0.00000000  0.50000000
   0.00000000  0.50000000  0.50000000

 position of ions in cartesian coordinates  (Angst):
   0.00000000  0.00000000  0.00000000
   2.09600000  2.09600000  2.09600000
   2.09600000  0.00000000  2.09600000
   0.00000000  2.09600000  2.09600000

 k-point     1 :   0.0000 0.0000 0.0000  plane waves:    1357

 maximum and minimum number of plane-waves per node :      1357     1357

 maximum number of plane-waves:      1357
 maximum index in each direction:
   IXMAX=    6   IYMAX=    6   IZMAX=    6
   IXMIN=   -6   IYMIN=   -6   IZMIN=   -6

 serial   3D FFT for wavefunctions
 parallel 3D FFT for charge:
    minimum data exchange during FFTs selected (reduces bandwidth)

 Broyden mixing: mesh for mixing (old mesh)
   NGX = 13   NGY = 13   NGZ = 13
  (NGX  = 48   NGY  = 48   NGZ  = 48)
  gives a total of   2197 points

 initial charge density was supplied:
 charge density of overlapping atoms calculated
 number of electron      34.0000000 magnetization
 keeping initial charge density in first step

 Maximum index for augmentation-charges         1030 (set IRDMAX)

 First call to EWALD:  gamma=   0.423
 Maximum number of real-space cells 3x 3x 3
 Maximum number of reciprocal cells 3x 3x 3

--------------------------------------- Ionic step        1  -------------------------------------------

--------------------------------------- Iteration      1(   1)  ---------------------------------------

 eigenvalue-minimisations  :    80
 total energy-change (2. order) : 0.9108477E+02  (-0.1845559E+04)
 number of electron      34.0000000 magnetization
 augmentation part       34.0000000 magnetization

 Free energy of the ion-electron system (eV)
  alpha Z        PSCENC =       193.60222308
  Ewald energy   TEWEN  =     -2230.08783499
  -Hartree energ DENC   =      -641.90256918
  -exchange      EXHF   =         0.00000000
  -V(xc)+E(xc)   XCENC  =       130.96739852
  PAW double counting   =      2214.50277941    -2196.50510371
  entropy T*S    EENTRO =         0.01159583
  eigenvalues    EBANDS =      -229.09913497
  atomic energy  EATOM  =      2849.59541854
  Solvation  Ediel_sol  =         0.00000000
  free energy    TOTEN  =        91.08477252 eV

  energy without entropy =       91.07317669  energy(sigma->0) =       91.08090724

[...]

 eigenvalue-minimisations  :   120
 total energy-change (2. order) :-0.1235273E+03  (-0.1235273E+03)
 number of electron      34.0000000 magnetization
 augmentation part       34.0000000 magnetization

[...]

 Broyden mixing:
  rms(total) = 0.18984E+01    rms(broyden)= 0.18975E+01
  rms(prec ) = 0.42817E+01
  weight for this iteration     100.00

[...]

 eigenvalues of (default mixing * dielectric matrix)
  average eigenvalue GAMMA=   0.9542
  0.9542

[...]

 eigenvalue-minimisations  :    80
 total energy-change (2. order) :-0.1574213E-03  (-0.2320840E-04)
 number of electron      34.0000084 magnetization
 augmentation part       -0.0109311 magnetization

 Broyden mixing:
  rms(total) = 0.16217E-02    rms(broyden)= 0.16198E-02
  rms(prec ) = 0.27321E-02
  weight for this iteration     100.00

 eigenvalues of (default mixing * dielectric matrix)
  average eigenvalue GAMMA=   1.6376
  2.7410  2.4600  1.6374  1.0247  0.9812  0.9812

[...]

--------------------------------------- Iteration      1(  12)  ---------------------------------------

 eigenvalue-minimisations  :    40
 total energy-change (2. order) : 0.1539514E-05  (-0.1964913E-05)
 number of electron      34.0000084 magnetization
 augmentation part       -0.0109311 magnetization

 Free energy of the ion-electron system (eV)
  alpha Z        PSCENC =       193.60222308
  Ewald energy   TEWEN  =     -2230.08783499
  -Hartree energ DENC   =      -661.84887508
  -exchange      EXHF   =         0.00000000
  -V(xc)+E(xc)   XCENC  =       132.99039407
  PAW double counting   =      2867.18545136    -2854.44372045
  entropy T*S    EENTRO =         0.02319412
  eigenvalues    EBANDS =      -318.93487545
  atomic energy  EATOM  =      2849.59541854
  Solvation  Ediel_sol  =         0.00000000
  free energy    TOTEN  =       -21.91862479 eV

  energy without entropy =      -21.94181892  energy(sigma->0) =      -21.92635617

 average (electrostatic) potential at core
  the test charge radii are     1.2192  1.0638  0.7215
  (the norm of the test charge is              1.0000)
       1 -34.0122       2 -81.0577       3 -67.3969       4 -67.3969

 E-fermi :   4.3781     XC(G=0): -10.1619     alpha+bet :-12.8644

 val. band max:        4.2096858391   @ k =   0.0000   0.0000   0.0000
 cond. band min:       5.4423644506   @ k =   0.0000   0.0000   0.0000
 fundamental gap:      1.2326786116
 Fermi energy:         4.3780613010

 k-point     1 :       0.0000    0.0000    0.0000
  band No.  band energies     occupation
      1     -45.9513      2.00000
      2     -23.9031      2.00000
      3     -23.9031      2.00000
      4     -23.7372      2.00000
      5     -22.0423      2.00000
      6     -11.6184      2.00000
      7     -11.3823      2.00000
      8      -7.1850      2.00000
      9      -7.1850      2.00000
     10      -7.0904      2.00000
     11       2.8914      2.00000
     12       3.0580      2.00000
     13       3.0580      2.00000
     14       3.4468      2.00000
     15       3.6573      2.00000
     16       4.2097      2.00000
     17       4.2097      2.00000
     18       5.4424     -0.00000
     19       5.5163     -0.00000
     20       5.5163     -0.00000
     21       7.9465     -0.00000
     22       8.5840      0.00000
     23       9.4066      0.00000
     24       9.6366      0.00000
     25      11.4999      0.00000
     26      11.5675      0.00000
     27      11.5675      0.00000
     28      13.8543      0.00000
     29      13.8543      0.00000
     30      15.9671      0.00000
     31      16.6996      0.00000
     32      20.7069      0.00000
     33      21.3098      0.00000
     34      21.3098      0.00000
     35      22.0535      0.00000
     36      22.8210      0.00000
     37      24.3998      0.00000
     38      24.5788      0.00000
     39      25.5886      0.00000
     40      26.1664      0.00000

 soft charge-density along one line, spin component           1
         0         1         2         3         4         5         6         7         8         9
 total charge-density along one line

------------------------ aborting loop because EDIFF is reached ----------------------------------------

  FORCE on cell =-STRESS in cart. coord.  units (eV):
  Direction    XX          YY          ZZ          XY          YZ          ZX
  Alpha Z   193.60222   193.60222   193.60222
  Ewald    -529.35265  -529.35265 -1171.38395     0.00000     0.00000    -0.00000
  Hartree   358.31836   358.31836   -54.78652    -0.00000    -0.00000    -0.00000
  E(xc)    -145.85569  -145.85569  -146.23321    -0.00000     0.00000    -0.00000
  Local    -410.81843  -410.81843   628.71064    -0.00000     0.00000     0.00000
  n-local   -85.31420   -85.31421  -106.03026     0.00000     0.00000     0.00000
  augment     8.49832     8.49832    12.13342     0.00000    -0.00000    -0.00000
  Kinetic   625.46014   625.46013   648.92778     0.00000    -0.00000    -0.00000
  Fock        0.00000     0.00000     0.00000     0.00000     0.00000     0.00000
  Total      14.53806    14.53806     4.94013     0.00000     0.00000    -0.00000
  in kB     316.19371   316.19371   107.44474     0.00000     0.00000    -0.00000

 VOLUME and BASIS-vectors are now :
  energy-cutoff  :      400.00
  volume of cell :       73.67
      direct lattice vectors                 reciprocal lattice vectors
     4.192000000  0.000000000  0.000000000     0.238549618  0.000000000  0.000000000
     0.000000000  4.192000000  0.000000000     0.000000000  0.238549618  0.000000000
     0.000000000  0.000000000  4.192000000     0.000000000  0.000000000  0.238549618

  length of vectors
     4.192000000  4.192000000  4.192000000     0.238549618  0.238549618  0.238549618

 FORCES acting on ions
    electron-ion (+dipol)            ewald-force                    non-local-force                 convergence-correction
   -.353E-14 -.163E-14 -.262E-14   0.539E-14 -.260E-14 -.140E-14   -.151E-23 0.152E-23 0.340E-24   0.183E-14 -.138E-14 -.144E-13
   0.142E-12 0.169E-12 -.485E-11   -.160E-13 0.163E-13 0.338E-14   0.466E-25 -.221E-25 0.103E-25   0.293E-14 0.163E-13 0.465E-13
   0.182E-12 -.119E-14 -.262E-11   -.232E-15 -.154E-13 -.412E-15   -.261E-22 -.113E-23 -.514E-23   -.407E-14 -.216E-14 0.303E-13
   -.136E-15 0.180E-12 0.188E-12   0.110E-13 0.108E-14 -.397E-15   0.106E-23 0.267E-22 0.111E-23   -.156E-14 0.162E-13 0.291E-13
   0.320E-12 0.346E-12 -.728E-11   0.192E-15 -.609E-15 0.117E-14   -.265E-22 0.270E-22 -.368E-23   -.861E-15 0.290E-13 0.915E-13

 POSITION                                       TOTAL-FORCE (eV/Angst)
      0.00000      0.00000      0.00000        -0.000000      0.000000     -0.000000
      2.09600      2.09600      2.09600         0.000000     -0.000000      0.000000
      2.09600      0.00000      2.09600        -0.000000      0.000000     -0.000000
      0.00000      2.09600      2.09600        -0.000000      0.000000      0.000000
    total drift:                                0.000000      0.000000     -0.000000

  FREE ENERGIE OF THE ION-ELECTRON SYSTEM (eV)
  free  energy   TOTEN  =       -21.91862479 eV

  energy  without entropy=      -21.94181892  energy(sigma->0) =      -21.92635617

 stress matrix after NEB project (eV)
     14.53806      0.00000     -0.00000
      0.00000     14.53806     -0.00000
      0.00000      0.00000      4.94013
  FORCES: max atom, RMS     0.000000    0.000000
  FORCE total and by dimension    0.000000    0.000000
  Stress total and by dimension   21.145100   14.538060
 writing wavefunctions