 vasp.6.4.3 19Mar24 (build Jul 09 2024 15:45:28) complex

 executed on             LinuxIFC date 2024.10.29  12:11:57

 INCAR:
   ENCUT = 400.000000
   POTIM = 0.150000
   EDIFF = 1.00e-04
   EDIFFG = -1.00e-01
   ALGO = Normal
   GGA = PE
   PREC = Normal
   IBRION = 2
   IDIPOL = 3
   ISMEAR = 0
   ISPIN = 2
   LMAXMIX = 6
   LORBIT = 10
   NELM = 30
   NELMIN = 5
   NPAR = 10
   NSIM = 10
   NSW = 5
   KGAMMA = .TRUE.
   LASPH = .TRUE.
   LCHARG = .FALSE.
   LDIPOL = .TRUE.
   LWAVE = .FALSE.
   LREAL = .TRUE.
   MAGMOM = 8*1.0000 29*0.0000

 POTCAR:    PAW_PBE Cr_pv 02Aug2007
 POTCAR:    PAW_PBE La 06Sep2000
 POTCAR:    PAW_PBE O 08Apr2002
 POTCAR:    PAW_PBE H 15Jun2001
 POTCAR:    PAW_PBE Cr_pv 02Aug2007
   VRHFIN =Cr : p6d5s1

   TITEL  = PAW_PBE Cr_pv 02Aug2007
   POMASS =   51.996; ZVAL   =   12.000    mass and valenz
   ENMAX  =  265.681; ENMIN  =  199.261 eV

   TITEL  = PAW_PBE La 06Sep2000
   POMASS =  138.900; ZVAL   =   11.000    mass and valenz
   ENMAX  =  219.292; ENMIN  =  164.469 eV

   TITEL  = PAW_PBE O 08Apr2002
   POMASS =   16.000; ZVAL   =    6.000    mass and valenz
   ENMAX  =  400.000; ENMIN  =  300.000 eV

   TITEL  = PAW_PBE H 15Jun2001
   POMASS =    1.000; ZVAL   =    1.000    mass and valenz
   ENMAX  =  250.000; ENMIN  =  200.000 eV

  PAW_PBE Cr_pv 02Aug2007               :
  PAW_PBE La 06Sep2000                  :
  PAW_PBE O 08Apr2002                   :
  PAW_PBE H 15Jun2001                   :

 POSCAR: Cr La O  H
  positions in cartesian coordinates

 exchange-correlation table for PE
   RHO(1)=    0.500       N(1)  =     2000
   RHO(2)=  100.500       N(2)  =     4000

 VTST: version 4.1, (05/19/21)

 CHAIN: initializing optimizer

 OPT: Using VASP Conjugate-Gradient optimizer
 CHAIN: Read ICHAIN            0

 POSCAR: Cr La O  H
  positions in cartesian coordinates

 ion  position               nearest neighbor table
   1  0.000  0.500  0.003-  16 1.91  18 1.97  15 2.18  10 3.23   9 3.35   9 3.42
   2  0.500  0.000  0.003-  15 1.91  17 1.97  16 2.18   9 3.23  10 3.35  10 3.42
   3  0.500  0.000  0.136-  20 1.91  21 1.91  17 1.97  23 1.97  22 2.18  19 2.18   9 3.23  11 3.23
                            10 3.35  12 3.35  12 3.42  10 3.42
   4  0.000  0.500  0.136-  19 1.91  22 1.91  18 1.97  24 1.97  20 2.18  21 2.18  10 3.23  12 3.23
                            11 3.35   9 3.35   9 3.42  11 3.42
   5  1.000  0.499  0.269-  30 1.90  28 1.97  25 2.00  24 2.01  27 2.13  26 2.13  14 3.25  12 3.26
                            13 3.34  11 3.37
   6  0.500  0.999  0.269-  29 1.90  27 1.97  26 2.00  23 2.01  28 2.13  25 2.13  13 3.25  11 3.26
                            14 3.34  12 3.37
   7  0.489  0.003  0.400-  33 1.89  29 1.97  32 2.02  34 2.12  31 2.16  13 3.23  14 3.34  14 3.35

   8  0.011  0.503  0.400-  34 1.89  30 1.97  31 2.02  33 2.12  35 2.16  32 2.16  14 3.23  13 3.34
                            13 3.35
   9  0.508  0.549  0.070-  18 2.43  16 2.46  19 2.46  17 2.56  15 2.65  20 2.65  22 2.70   3 3.23
                             2 3.23   4 3.35   1 3.35   4 3.42   1 3.42
  10  0.992  0.049  0.070-  17 2.43  15 2.46  20 2.46  18 2.56  19 2.65  16 2.65  21 2.70   4 3.23
                             1 3.23   3 3.35   2 3.35   3 3.42   2 3.42
  11  0.492  0.451  0.202-  25 2.40  24 2.43  22 2.46  23 2.56  28 2.64  21 2.65  26 2.66  19 2.70
                             3 3.23   6 3.26   4 3.35   5 3.37   4 3.42
  12  0.008  0.951  0.202-  26 2.40  23 2.43  21 2.46  24 2.56  27 2.64  22 2.65  25 2.66  20 2.70
                             4 3.23   5 3.26   3 3.35   6 3.37   3 3.42
  13  0.510  0.544  0.336-  31 2.36  28 2.43  30 2.45  34 2.59  32 2.59  29 2.68  27 2.76  25 2.76
                             7 3.23   6 3.25   5 3.34   8 3.34   8 3.35
  14  0.990  0.044  0.336-  32 2.36  27 2.43  29 2.45  33 2.59  31 2.59  30 2.68  28 2.76  26 2.76
                             8 3.23   5 3.25   6 3.34   7 3.34   7 3.35
  15  0.774  0.807  0.014-   2 1.91   1 2.18  10 2.46   9 2.65
  16  0.726  0.307  0.014-   1 1.91   2 2.18   9 2.46  10 2.65
  17  0.425  0.987  0.070-   3 1.97   2 1.97  10 2.43   9 2.56
  18  0.075  0.487  0.070-   4 1.97   1 1.97   9 2.43  10 2.56
  19  0.726  0.307  0.126-   4 1.91   3 2.18   9 2.46  10 2.65  11 2.70
  20  0.774  0.807  0.126-   3 1.91   4 2.18  10 2.46   9 2.65  12 2.70
  21  0.226  0.193  0.146-   3 1.91   4 2.18  12 2.46  11 2.65  10 2.70
  22  0.274  0.693  0.146-   4 1.91   3 2.18  11 2.46  12 2.65   9 2.70
  23  0.575  0.013  0.202-   3 1.97   6 2.01  12 2.43  11 2.56
  24  0.925  0.513  0.202-   4 1.97   5 2.01  11 2.43  12 2.56
  25  0.289  0.696  0.256-   5 2.00   6 2.13  11 2.40  12 2.66  13 2.76
  26  0.211  0.196  0.256-   6 2.00   5 2.13  12 2.40  11 2.66  14 2.76
  27  0.792  0.808  0.278-   6 1.97   5 2.13  14 2.43  12 2.64  13 2.76
  28  0.708  0.308  0.278-   5 1.97   6 2.13  13 2.43  11 2.64  14 2.76
  29  0.430  0.004  0.333-   6 1.90   7 1.97  14 2.45  13 2.68
  30  0.070  0.504  0.333-   5 1.90   8 1.97  13 2.45  14 2.68
  31  0.719  0.301  0.388-   8 2.02   7 2.16  13 2.36  14 2.59
  32  0.781  0.801  0.388-   7 2.02   8 2.16  14 2.36  13 2.59
  33  0.213  0.192  0.408-   7 1.89   8 2.12  14 2.59
  34  0.287  0.692  0.408-   8 1.89   7 2.12  13 2.59
  35  0.000  0.623  0.470-  36 1.47   8 2.16
  36  0.000  0.383  0.487-  37 1.08  35 1.47
  37  0.000  0.402  0.524-  36 1.08

  LATTYP: Found a simple orthorhombic cell.
 ALAT       =     5.5367000000
 B/A-ratio  =     1.0380370979
 C/A-ratio  =     5.2541031011

  Lattice vectors:

 A1 = (   5.5367000000,   0.0000000000,   0.0000000000)
 A2 = (   0.0000000000,   5.7473000000,   0.0000000000)
 A3 = (   0.0000000000,   0.0000000000,  29.0903926400)

Analysis of symmetry for initial positions (statically):
 Subroutine PRICEL returns:
 Original cell was already a primitive cell.

 Routine SETGRP: Setting up the symmetry group for a
 simple orthorhombic supercell.

 Subroutine GETGRP returns: Found  1 space group operations
 (whereof  1 operations were pure point group operations)
 out of a pool of  8 trial point group operations.

The static configuration has the point symmetry C_1 .

Analysis of symmetry for dynamics (positions and initial velocities):
 Subroutine PRICEL returns:
 Original cell was already a primitive cell.

[...]

The dynamic configuration has the point symmetry C_1 .

Analysis of constrained symmetry for selective dynamics:
 Subroutine PRICEL returns:
 Original cell was already a primitive cell.

[...]

The constrained configuration has the point symmetry C_1 .

Analysis of structural, dynamic, and magnetic symmetry:
 Subroutine PRICEL returns:
 Original cell was already a primitive cell.

 Routine SETGRP: Setting up the symmetry group for a
 simple orthorhombic supercell.

 Subroutine GETGRP returns: Found  1 space group operations
 (whereof  1 operations were pure point group operations)
 out of a pool of  8 trial point group operations.

The overall configuration has the point symmetry C_1 .

 Subroutine INISYM returns: Found  1 space group operations
 (whereof  1 operations are pure point group operations),
 and found     1 'primitive' translations

                                     Primitive cell

  volume of cell :     925.6876

  direct lattice vectors                    reciprocal lattice vectors
     5.536700000  0.000000000  0.000000000     0.180613001  0.000000000  0.000000000
     0.000000000  5.747300000  0.000000000     0.000000000  0.173994745  0.000000000
     0.000000000  0.000000000 29.090392640     0.000000000  0.000000000  0.034375610

  length of vectors
     5.536700000  5.747300000 29.090392640     0.180613001  0.173994745  0.034375610

  position of ions in fractional coordinates (direct lattice)
     0.000000000  0.500000000  0.003437561
     0.500000000  0.000000000  0.003437561
     0.500000000  0.000000000  0.135661627
     0.000000000  0.500000000  0.135661627
     0.999869288  0.499384381  0.269371256
     0.500130712  0.999384381  0.269371256
     0.489395868  0.003155030  0.400064527
     0.010604132  0.503155030  0.400064527
     0.507800000  0.549000000  0.069549594
     0.992200000  0.049000000  0.069549594
     0.492200000  0.451000000  0.201773660
     0.007800000  0.951000000  0.201773660
     0.509573887  0.544166459  0.335817371
     0.990426113  0.044166459  0.335817371
     0.774400000  0.806600000  0.013592369
     0.725600000  0.306600000  0.013592369
     0.425500000  0.987400000  0.069549594
     0.074500000  0.487400000  0.069549594
     0.725600000  0.306600000  0.125506819
     0.774400000  0.806600000  0.125506819
     0.225600000  0.193400000  0.145816435
     0.274400000  0.693400000  0.145816435
     0.574500000  0.012600000  0.201773660
     0.925500000  0.512600000  0.201773660
     0.288705330  0.696341168  0.256143619
     0.211294670  0.196341168  0.256143619
     0.792048047  0.807818652  0.277526194
     0.707951953  0.307818652  0.277526194
     0.429843379  0.003571190  0.333245042
     0.070156621  0.503571190  0.333245042
     0.719086704  0.301287230  0.387742702
     0.780913296  0.801287230  0.387742702
     0.213394579  0.192287266  0.408348745
     0.286605421  0.692287266  0.408348745
     0.000000000  0.623158779  0.470224844
     0.000000000  0.383119496  0.487485705
     0.000000000  0.401959100  0.524441227

  ion indices of the primitive-cell ions
   primitive index   ion index
                 1           1
                 2           2
                 3           3
                 4           4
                 5           5
                 6           6
                 7           7
                 8           8
                 9           9
                10          10
                11          11
                12          12
                13          13
                14          14
                15          15
                16          16
                17          17
                18          18
                19          19
                20          20
                21          21
                22          22
                23          23
                24          24
                25          25
                26          26
                27          27
                28          28
                29          29
                30          30
                31          31
                32          32
                33          33
                34          34
                35          35
                36          36
                37          37

 KPOINTS: KPOINTS created by Atomic Simulation Env

Automatic generation of k-mesh.
 Grid dimensions read from file:
 generate k-points for:    1    1    1

 Generating k-lattice:

  Cartesian coordinates                     Fractional coordinates (reciprocal lattice)
     0.180613001  0.000000000  0.000000000     1.000000000  0.000000000  0.000000000
     0.000000000  0.173994745  0.000000000     0.000000000  1.000000000  0.000000000
     0.000000000  0.000000000  0.034375610     0.000000000  0.000000000  1.000000000

  Length of vectors
     0.180613001  0.173994745  0.034375610

  Shift w.r.t. Gamma in fractional coordinates (k-lattice)
[...]
     57     -13.9492      1.00000
     58     -13.8709      1.00000
     59     -13.7228      1.00000
     60     -13.6738      1.00000
[...]
    176       4.3927      0.00000
    177       4.4326      0.00000
    178       4.4968      0.00000
    179       4.5315      0.00000
    180       4.5514      0.00000
    181       4.5806      0.00000
    182       4.5876      0.00000
    183       4.6218      0.00000
    184       4.6250      0.00000
    185       4.6717      0.00000
    186       4.6871      0.00000
    187       4.6984      0.00000
    188       4.7175      0.00000
    189       4.7268      0.00000
    190       4.7410      0.00000
 Fermi energy:         1.6728424694

 spin component 2

 k-point     1 :       0.0000    0.0000    0.0000
  band No.  band energies     occupation
      1     -43.2383      1.00000
      2     -43.1707      1.00000
      3     -43.1070      1.00000
      4     -42.9305      1.00000
      5     -42.8448      1.00000
      6     -42.7938      1.00000
      7     -42.2032      1.00000
      8     -41.9856      1.00000
      9     -41.4851      1.00000
     10     -40.8279      1.00000
     11     -40.7059      1.00000
     12     -40.6705      1.00000
     13     -40.5756      1.00000
     14     -40.5442      1.00000
     15     -40.4663      1.00000
     16     -40.3999      1.00000
     17     -40.3822      1.00000
     18     -40.3793      1.00000
     19     -40.3068      1.00000
     20     -40.2655      1.00000
     21     -40.2192      1.00000
     22     -39.3404      1.00000
     23     -39.1343      1.00000
     24     -38.9046      1.00000
     25     -30.5238      1.00000
     26     -30.4151      1.00000
     27     -30.2606      1.00000
     28     -30.1595      1.00000
     29     -29.7526      1.00000
     30     -29.6381      1.00000
     31     -25.2155      1.00000
     32     -17.9806      1.00000
     33     -17.5591      1.00000
     34     -17.5250      1.00000
     35     -17.4634      1.00000
     36     -17.2865      1.00000
     37     -17.1960      1.00000
     38     -17.1136      1.00000
     39     -17.0514      1.00000
     40     -16.9586      1.00000
     41     -16.9098      1.00000
     42     -16.7407      1.00000
     43     -16.6993      1.00000
     44     -16.6224      1.00000
     45     -16.6011      1.00000
     46     -16.4865      1.00000
     47     -16.4098      1.00000
     48     -16.2627      1.00000
     49     -15.6231      1.00000
     50     -15.5108      1.00000
     51     -15.4323      1.00000
     52     -14.2536      1.00000
     53     -14.2335      1.00000
     54     -14.2105      1.00000
     55     -14.1040      1.00000
     56     -13.9958      1.00000
     57     -13.9373      1.00000
     58     -13.8606      1.00000
     59     -13.7094      1.00000
     60     -13.6624      1.00000
[...]
    176       4.5210      0.00000
    177       4.5392      0.00000
    178       4.5659      0.00000
    179       4.5804      0.00000
    180       4.6274      0.00000
    181       4.6307      0.00000
    182       4.6381      0.00000
    183       4.6519      0.00000
    184       4.6986      0.00000
    185       4.7245      0.00000
    186       4.7345      0.00000
    187       4.7421      0.00000
    188       4.7674      0.00000
    189       4.7997      0.00000
    190       4.8375      0.00000

[...]

 soft charge-density along one line, spin component           2
         0         1         2         3         4         5         6         7         8         9
 total charge-density along one line

------------------------ aborting loop because EDIFF is reached ----------------------------------------

[...]

  FORCE on cell =-STRESS in cart. coord.  units (eV):
  Direction    XX          YY          ZZ          XY          YZ          ZX
  Alpha Z   617.34120   617.34120   617.34120
  Ewald  152461.87769152395.57083************     6.92947   -58.43640   -99.98739
  Hartree159670.17580159734.87275************     9.09769   -24.36673   -77.95638
  E(xc)   -1427.58864 -1428.21026 -1427.81397    -0.03199    -0.06986    -0.09316
  Local  ************************315664.25093   -19.72652    64.87961   178.35221
  n-local   132.21156   116.48799   121.14008    -0.07400     0.12236     2.33949
  augment   622.56750   620.46476   622.04248     1.84762     0.26318    -0.19845
  Kinetic  5146.35691  5109.04990  5081.52508     3.57479    14.86979    -3.09457
  Fock        0.00000     0.00000     0.00000     0.00000     0.00000     0.00000
  Total      10.75716    -4.53962   -22.01701     1.61705    -2.73806    -0.63825
  in kB      18.61847    -7.85716   -38.10697     2.79878    -4.73902    -1.10469

 VOLUME and BASIS-vectors are now :
  energy-cutoff  :      400.00
  volume of cell :      925.69
      direct lattice vectors                 reciprocal lattice vectors
     5.536700000  0.000000000  0.000000000     0.180613001  0.000000000  0.000000000
     0.000000000  5.747300000  0.000000000     0.000000000  0.173994745  0.000000000
     0.000000000  0.000000000 29.090392640     0.000000000  0.000000000  0.034375610

  length of vectors
     5.536700000  5.747300000 29.090392640     0.180613001  0.173994745  0.034375610

 FORCES acting on ions
    electron-ion (+dipol)            ewald-force                    non-local-force                 convergence-correction
   -.246E+03 -.372E+02 0.454E+04   0.244E+03 0.366E+02 -.453E+04   0.124E+01 0.167E+01 -.725E+01   0.381E+00 0.260E+00 -.171E+01
   0.248E+03 -.377E+02 0.454E+04   -.244E+03 0.366E+02 -.453E+04   -.154E+01 0.224E+01 -.640E+01   -.569E+00 -.710E-01 -.256E+01
   0.696E+01 0.681E-01 0.190E+04   -.684E+01 -.254E-01 -.190E+04   -.211E+00 -.126E+00 -.738E+00   0.125E-01 0.476E-01 -.191E+00
   -.692E+01 0.901E-01 0.190E+04   0.684E+01 -.332E-01 -.190E+04   0.966E-01 0.113E-01 -.434E+00   0.311E-02 -.528E-01 -.519E+00
   -.384E+01 0.236E+01 -.103E+04   0.433E+01 -.273E+01 0.103E+04   -.155E+00 0.169E+00 -.531E+00   -.164E+00 -.104E+00 0.625E+00
   0.478E+01 0.333E+00 -.103E+04   -.509E+01 -.484E+00 0.103E+04   0.467E-01 0.149E+00 0.231E+00   0.238E+00 -.217E+00 0.670E+00
   -.101E+03 0.191E+02 -.403E+04   0.974E+02 -.157E+02 0.402E+04   0.290E+01 -.313E+01 0.450E+01   0.719E+00 0.667E-01 0.150E+01
   0.836E+02 0.584E+02 -.378E+04   -.810E+02 -.536E+02 0.378E+04   -.199E+01 -.328E+01 0.181E+01   -.641E+00 0.318E+00 0.141E+01
   0.721E+02 0.494E+02 0.308E+04   -.716E+02 -.487E+02 -.308E+04   0.772E+00 -.181E+01 0.406E+00   -.133E+00 -.255E-01 -.972E+00
   -.721E+02 0.495E+02 0.308E+04   0.716E+02 -.487E+02 -.308E+04   -.730E+00 -.179E+01 0.386E+00   -.422E-02 0.288E-01 -.896E+00
   -.141E+02 -.544E+02 0.401E+03   0.140E+02 0.533E+02 -.401E+03   -.452E+00 0.200E+01 -.247E+00   0.341E-01 0.271E-02 0.650E-01
   0.140E+02 -.544E+02 0.401E+03   -.139E+02 0.532E+02 -.401E+03   0.420E+00 0.201E+01 -.246E+00   -.122E-01 0.280E-01 0.125E+00
   0.185E+02 0.386E+02 -.230E+04   -.181E+02 -.386E+02 0.230E+04   -.359E+00 -.336E+00 -.773E+00   0.284E+00 0.128E+00 0.109E+01
   -.186E+02 0.276E+02 -.230E+04   0.179E+02 -.273E+02 0.230E+04   0.726E+00 -.155E+00 -.888E+00   -.404E+00 -.176E+00 0.108E+01
   -.890E+02 0.216E+02 0.214E+04   0.952E+02 -.245E+02 -.215E+04   -.222E+01 0.290E+01 0.615E+01   -.384E+00 0.227E+00 -.679E+00
   0.898E+02 0.226E+02 0.214E+04   -.952E+02 -.245E+02 -.215E+04   0.123E+01 0.134E+01 0.670E+01   -.428E+00 -.319E+00 -.688E+00
   0.764E+02 -.177E+02 0.169E+04   -.778E+02 0.186E+02 -.169E+04   0.108E+01 0.129E+00 -.351E+01   0.296E-01 -.735E-01 -.850E+00
   -.766E+02 -.176E+02 0.169E+04   0.778E+02 0.186E+02 -.169E+04   -.102E+01 -.249E+00 -.285E+01   0.127E+00 0.313E-01 -.275E+00
   0.703E+02 0.276E+02 0.107E+04   -.745E+02 -.297E+02 -.108E+04   -.163E+00 0.147E+01 -.441E+01   -.293E-01 0.300E-01 -.191E+00
   -.702E+02 0.277E+02 0.108E+04   0.745E+02 -.298E+02 -.108E+04   0.106E+00 0.151E+01 -.469E+01   0.319E-01 -.634E-01 -.157E+00
   0.691E+02 -.278E+02 0.821E+03   -.734E+02 0.297E+02 -.819E+03   -.153E+01 -.230E+01 -.147E+01   -.186E-01 0.394E-01 -.709E-01
   -.691E+02 -.277E+02 0.821E+03   0.734E+02 0.297E+02 -.819E+03   0.158E+01 -.219E+01 -.144E+01   0.332E-01 -.304E-01 -.118E+00
   -.437E+02 0.183E+02 0.210E+03   0.460E+02 -.190E+02 -.208E+03   -.270E+01 -.213E+01 -.451E+01   0.268E-01 -.245E-02 0.133E+00
   0.445E+02 0.180E+02 0.209E+03   -.460E+02 -.190E+02 -.208E+03   0.217E+01 -.186E+01 -.466E+01   -.496E-01 -.230E-01 0.978E-01
   -.557E+02 -.109E+02 -.373E+03   0.596E+02 0.113E+02 0.372E+03   -.166E+01 -.278E+00 -.146E+01   0.294E-01 0.429E-01 0.179E+00
   0.554E+02 -.112E+02 -.374E+03   -.594E+02 0.116E+02 0.372E+03   0.126E+01 0.450E-01 -.809E+00   -.147E-01 0.215E-01 0.145E+00
   -.572E+02 0.178E+02 -.635E+03   0.618E+02 -.190E+02 0.636E+03   -.771E+01 0.533E+01 -.491E+01   -.168E+00 0.134E+00 0.308E+00
   0.573E+02 0.173E+02 -.636E+03   -.617E+02 -.182E+02 0.638E+03   0.744E+01 0.551E+01 -.495E+01   0.123E+00 0.772E-01 0.287E+00
   0.427E+02 -.140E+02 -.124E+04   -.467E+02 0.138E+02 0.124E+04   0.345E+01 0.372E+01 0.814E+00   0.252E+00 -.104E+00 0.644E+00
   -.436E+02 -.697E+01 -.125E+04   0.456E+02 0.752E+01 0.125E+04   -.182E+01 0.280E+01 0.916E+00   -.995E-01 0.421E-01 -.207E-01
   0.477E+02 0.436E+01 -.186E+04   -.482E+02 -.249E+01 0.186E+04   0.168E+01 -.503E+01 -.852E+01   -.461E+00 -.480E+00 0.843E+00
   -.863E+01 -.321E+02 -.185E+04   0.105E+02 0.331E+02 0.185E+04   -.157E+01 -.836E+01 -.493E+01   -.366E+00 0.323E+00 0.822E+00
   0.714E+02 0.382E+00 -.208E+04   -.823E+02 0.904E+00 0.209E+04   0.883E+01 -.431E+00 -.209E+02   0.627E+00 -.714E+00 0.889E+00
   -.155E+03 -.505E+02 -.205E+04   0.164E+03 0.515E+02 0.206E+04   -.898E+01 -.379E+01 -.157E+02   0.536E+00 0.423E+00 0.816E+00
   0.367E+02 -.287E+03 -.223E+04   -.359E+02 0.344E+03 0.222E+04   0.483E+00 -.434E+02 0.137E+02   -.591E-01 -.536E+00 0.896E+00
   0.219E+02 0.262E+03 -.226E+04   -.220E+02 -.317E+03 0.224E+04   0.747E+00 0.447E+02 0.226E+02   -.290E-01 0.613E+00 -.394E-01
   0.760E+00 0.994E+01 -.397E+03   -.705E+00 -.100E+02 0.400E+03   -.259E-01 0.511E+00 -.612E+01   -.145E-02 0.251E-01 -.107E+00
   0.998E-01 0.515E+01 0.234E+02   0.594E-13 -.746E-13 -.364E-11   0.141E+01 -.244E+01 -.552E+02   -.548E+00 -.820E-01 0.257E+01

 POSITION                                       TOTAL-FORCE (eV/Angst)
      0.00000      2.87365      0.10000        -0.403255      1.234574      2.392465
      2.76835      0.00000      0.10000         1.528392      1.000065      3.584259
      2.76835      0.00000      3.94645        -0.108775     -0.106278      1.473547
      0.00000      2.87365      3.94645        -0.012912     -0.055600      1.452865
      5.53433      2.88617      7.82672         0.146779     -0.380695      1.370180
      2.77258      0.01317      7.82591        -0.052551     -0.290314      1.334837
      2.67973      0.03616     11.61231        -0.361424      0.321532     -0.043316
      0.08161      2.93431     11.68230         0.019933      1.724090      1.174725
      2.81154      3.15527      2.02323         1.092862     -1.180564      0.676448
      5.49351      0.28162      2.02323        -1.292129     -1.071759      0.673595
      2.72516      2.59203      5.86967        -0.551562      0.766092      1.041765
      0.04319      5.46568      5.86967         0.513420      0.743210      1.045648
      2.83701      3.13550      9.76415         0.332260     -0.231950      2.365369
      5.46773      0.25628      9.76427        -0.392366     -0.075137      2.162738
      4.28762      4.63577      0.39541         3.496554      0.129363      2.654323
      4.01743      1.76212      0.39541        -4.616589     -0.941401      2.798350
      2.35587      5.67488      2.02323        -0.329560      0.837262     -1.818830
      0.41248      2.80123      2.02323         0.260972      0.642893     -1.097532
      4.01743      1.76212      3.65104        -4.430359     -0.735810     -4.978100
      4.28762      4.63577      3.65104         4.371938     -0.692230     -5.024534
      1.24908      1.11153      4.24186        -5.873749     -0.360993      1.208542
      1.51927      3.98518      4.24186         5.859290     -0.305805      1.199089
      3.18083      0.07242      5.86967        -0.462492     -2.896124     -2.422846
      5.12422      2.94607      5.86967         0.534856     -2.968672     -2.493813
      1.57336      4.01658      7.47850         2.225260      0.076370     -1.992352
      1.19501      1.14168      7.47782        -2.797638      0.477839     -1.391302
      4.36238      4.68344      8.09036        -3.300675      4.211908     -2.491497
      3.94287      1.80832      8.09026         3.152730      4.590949     -2.396244
      2.37479      5.72005      9.69768        -0.319388      3.349119      0.948956
      0.39038      2.84823      9.69193         0.060880      3.317477      3.753923
      3.95212      1.70100     11.33269         0.630977     -3.707254     -3.855634
      4.35357      4.58340     11.32535        -0.119430     -7.120505      0.210568
      1.19354      1.02521     11.95506        -1.484879      0.069705     -9.272051
      1.58357      3.92611     11.93126         0.906103     -2.401679     -3.957248
      5.53385      3.44836     13.69630         1.189628     12.235513      2.507263
      5.53156      2.28625     14.13226         0.585725    -10.566996      9.855373
      5.53640      2.32492     15.22902         0.001174      0.361806     -2.649526
    total drift:                                0.964633      2.627006    -29.280110

  FREE ENERGIE OF THE ION-ELECTRON SYSTEM (eV)
  free  energy   TOTEN  =      -296.23947728 eV

  energy  without entropy=     -295.98423366  energy(sigma->0) =     -296.11185547

 d Force = 0.1849238E+00[-0.132E+01, 0.169E+01]  d Energy = 0.4825482E+00-0.298E+00
 d Force = 0.2428181E+03[ 0.238E+03, 0.247E+03]  d Ewald  = 0.2428959E+03-0.777E-01

 stress matrix after NEB project (eV)
     10.75716      1.61734     -0.63825
      1.61705     -4.53962     -2.73704
     -0.63781     -2.73806    -22.01701
  FORCES: max atom, RMS    14.461426    4.383098
  FORCE total and by dimension   26.661344   12.235513
  Stress total and by dimension   25.339818   22.017006
 Conjugate gradient step on ions:
 trial-energy change:   -0.482548  1 .order   -0.184924   -1.688521    1.318674
  (g-gl).g = 0.421E+01      g.g   = 0.421E+01  gl.gl    = 0.382E+01
 g(Force)  = 0.421E+01   g(Stress)= 0.000E+00 ortho     = 0.423E-02
 gamma     =   1.10077
 trial     =   0.40059
 opt step  =   0.27592  (harmonic =   0.22493) maximal distance =0.02903901
 next E    =  -296.435701   (d E  =  -0.67877)

 vacuum level on the upper side and lower side of the slab         5.334         5.659

 total charge

[...]

 magnetization (x)

# of ion       s       p       d       f       tot
    1        0.041   0.043   3.284   0.000   3.368
    2       -0.006  -0.006  -0.794   0.000  -0.806
    3        0.016   0.023   2.447   0.000   2.486
    4       -0.016  -0.024  -2.403   0.000  -2.442
    5        0.020   0.024   2.582   0.000   2.626
    6        0.019   0.023   2.622   0.000   2.664
    7        0.018   0.018   2.150   0.000   2.186
    8       -0.017  -0.021  -2.155   0.000  -2.194
    9        0.001   0.001   0.014   0.011   0.028
   10        0.000   0.001   0.016   0.009   0.026
   11       -0.000  -0.001   0.004   0.007   0.010
   12        0.000  -0.000   0.008   0.007   0.015
   13       -0.000  -0.001   0.006   0.008   0.014
   14       -0.000  -0.002   0.008   0.007   0.014
   15        0.001  -0.042   0.000   0.000  -0.041
   16        0.002  -0.037   0.000   0.000  -0.035
   17        0.001   0.016   0.000   0.000   0.016
   18       -0.002  -0.022   0.000   0.000  -0.024
   19        0.000  -0.018   0.000   0.000  -0.017
   20        0.001   0.032   0.000   0.000   0.034
   21        0.000   0.027   0.000   0.000   0.027
   22       -0.000  -0.024   0.000   0.000  -0.024
   23        0.000   0.034   0.000   0.000   0.034
   24       -0.000  -0.013   0.000   0.000  -0.013
   25        0.001  -0.017   0.000   0.000  -0.016
   26        0.001  -0.014   0.000   0.000  -0.014
   27        0.000  -0.010   0.000   0.000  -0.010
   28        0.001  -0.014   0.000   0.000  -0.013
   29        0.000   0.005   0.000   0.000   0.005
   30       -0.000   0.020   0.000   0.000   0.020
   31       -0.000   0.003   0.000   0.000   0.002
   32        0.001   0.004   0.000   0.000   0.004
   33        0.000  -0.022   0.000   0.000  -0.022
   34        0.001   0.010   0.000   0.000   0.011
   35        0.006   0.390   0.000   0.000   0.396
   36        0.000   0.211   0.000   0.000   0.212
   37       -0.009   0.002   0.000   0.000  -0.008
tot          0.079   0.600   7.790   0.050   8.519