 vasp.6.4.3 19Mar24 (build Jul 01 2024 12:12:31) complex

 executed on             LinuxIFC date 2024.12.05  16:11:43

 INCAR:
   SYSTEM = BaZrO3
   PREC = Accurate
   ISTART = 0
   ICHARG = 2
   LWAVE = .FALSE.
   LCHARG = .TRUE.
   ENCUT = 520
   EDIFF = 1E-6
   NELM = 100
   NELMIN = 5
   LREAL = Auto
   ADDGRID = .TRUE.
   ISMEAR = 0
   SIGMA = 0.05
   GGA = PE
   LASPH = .TRUE.
   NSW = 100
   IBRION = 2
   ISIF = 3
   EDIFFG = -0.01
   ISPIN = 1
   LORBIT = 11
   NPAR = 4
   NCORE = 4
   NEDOS = 2000

 POTCAR:    PAW_PBE Ba_sv 06Sep2000
 POTCAR:    PAW_PBE Zr_sv 04Jan2005
 POTCAR:    PAW_PBE O 08Apr2002
|           W    W    AA    RRRRR   N    N  II  N    N   GGGG   !!!           |
|           W    W   A  A   R    R  NN   N  II  NN   N  G    G  !!!           |
|           W    W  A    A  R    R  N N  N  II  N N  N  G       !!!           |
|           W WW W  AAAAAA  RRRRR   N  N N  II  N  N N  G  GGG   !            |
|           WW  WW  A    A  R   R   N   NN  II  N   NN  G    G                |
|           W    W  A    A  R    R  N    N  II  N    N   GGGG   !!!           |
|     The value NCORE = 4 specified in the INCAR file was overwritten,        |
|     because it was not compatible with the 8 processes available:           |
|     NCORE = 2                                                               |
|     was used instead, please check that this makes sense for your           |
|     machine.                                                                |

   TITEL  = PAW_PBE Ba_sv 06Sep2000
   POMASS =  137.327; ZVAL   =   10.000    mass and valenz
   ENMAX  =  187.181; ENMIN  =  140.386 eV

   TITEL  = PAW_PBE Zr_sv 04Jan2005
   POMASS =   91.224; ZVAL   =   12.000    mass and valenz
   ENMAX  =  229.898; ENMIN  =  172.424 eV

   TITEL  = PAW_PBE O 08Apr2002
   POMASS =   16.000; ZVAL   =    6.000    mass and valenz
   ENMAX  =  400.000; ENMIN  =  300.000 eV

 Optimization of the real space projectors (new method)

 maximal supplied QI-value         = 13.42
 optimisation between [QCUT,QGAM] = [ 11.67, 23.35] = [ 38.16,152.62] Ry
 Optimized for a Real-space Cutoff    1.68 Angstroem

   l    n(q)    QCUT    max X(q) W(low)/X(q) W(high)/X(q)  e(spline)
   0     12    11.673    13.244    0.27E-04    0.53E-05    0.55E-07
   0     12    11.673    14.240    0.39E-04    0.74E-05    0.11E-06
   1     11    11.673     4.828    0.65E-05    0.14E-04    0.51E-07
   1     11    11.673     3.934    0.16E-04    0.58E-04    0.38E-06
   2     11    11.673    87.714    0.23E-03    0.16E-03    0.84E-06
   2     11    11.673    59.874    0.22E-03    0.15E-03    0.81E-06
 Optimization of the real space projectors (new method)

[...]

   l    n(q)    QCUT    max X(q) W(low)/X(q) W(high)/X(q)  e(spline)
   0     11    11.641    12.107    0.25E-04    0.86E-05    0.10E-06
   0     11    11.641     9.948    0.34E-04    0.18E-04    0.23E-06
   1     11    11.641     3.563    0.17E-04    0.12E-04    0.38E-07
   1     11    11.641     4.524    0.18E-03    0.80E-04    0.37E-06
   2     10    11.641    87.261    0.40E-04    0.20E-04    0.23E-06
   2     10    11.641    70.950    0.40E-04    0.20E-04    0.23E-06
 Optimization of the real space projectors (new method)

 maximal supplied QI-value         = 24.76
 optimisation between [QCUT,QGAM] = [ 11.64, 23.27] = [ 37.91,151.63] Ry
 Optimized for a Real-space Cutoff    1.14 Angstroem

   l    n(q)    QCUT    max X(q) W(low)/X(q) W(high)/X(q)  e(spline)
   0      8    11.635    20.381    0.10E-03    0.33E-03    0.24E-06
   0      8    11.635    15.268    0.11E-03    0.35E-03    0.26E-06
   1      7    11.635     5.964    0.24E-03    0.31E-03    0.30E-06
   1      7    11.635     5.382    0.22E-03    0.25E-03    0.26E-06
  PAW_PBE Ba_sv 06Sep2000               :
  PAW_PBE Zr_sv 04Jan2005               :
  PAW_PBE O 08Apr2002                   :

 POSCAR: Ba Zr O
  positions in cartesian coordinates

 exchange-correlation table for PE
   RHO(1)=    0.500       N(1)  =     2000
   RHO(2)=  100.500       N(2)  =     4000

 VTST: version 4.1, (05/19/21)

 CHAIN: initializing optimizer

 OPT: Using VASP Conjugate-Gradient optimizer
 CHAIN: Read ICHAIN            0

 POSCAR: Ba Zr O
  positions in cartesian coordinates

 ion  position               nearest neighbor table
   1  0.000  0.000  0.000-   3 2.96   4 2.96   5 2.96   4 2.96   5 2.96   3 2.96   5 2.96   5 2.96
                             3 2.96   4 2.96   4 2.96   3 2.96   2 3.63   2 3.63   2 3.63   2 3.63
   2  0.500  0.500  0.500-   3 2.10   4 2.10   5 2.10   3 2.10   4 2.10   5 2.10   1 3.63   1 3.63
                             1 3.63   1 3.63   1 3.63   1 3.63   1 3.63   1 3.63
   3  0.500  0.500  0.000-   2 2.10   2 2.10   1 2.96   1 2.96   1 2.96   1 2.96
   4  0.500  0.000  0.500-   2 2.10   2 2.10   1 2.96   1 2.96   1 2.96   1 2.96
   5  0.000  0.500  0.500-   2 2.10   2 2.10   1 2.96   1 2.96   1 2.96   1 2.96

  LATTYP: Found a simple cubic cell.
 ALAT       =     4.1920000000

  Lattice vectors:

 A1 = (   4.1920000000,   0.0000000000,   0.0000000000)
 A2 = (   0.0000000000,   4.1920000000,   0.0000000000)
 A3 = (   0.0000000000,   0.0000000000,   4.1920000000)

Analysis of symmetry for initial positions (statically):
 Subroutine PRICEL returns:
 Original cell was already a primitive cell.

 Routine SETGRP: Setting up the symmetry group for a
 simple cubic supercell.

 Subroutine GETGRP returns: Found 48 space group operations
 (whereof 48 operations were pure point group operations)
 out of a pool of 48 trial point group operations.

The static configuration has the point symmetry O_h .

Analysis of symmetry for dynamics (positions and initial velocities):
 Subroutine PRICEL returns:
 Original cell was already a primitive cell.

 Routine SETGRP: Setting up the symmetry group for a
 simple cubic supercell.

 Subroutine GETGRP returns: Found 48 space group operations
 (whereof 48 operations were pure point group operations)
 out of a pool of 48 trial point group operations.

The dynamic configuration has the point symmetry O_h .

 Subroutine INISYM returns: Found 48 space group operations
 (whereof 48 operations are pure point group operations),
 and found     1 'primitive' translations

                                     Primitive cell

  volume of cell :      73.6654

  direct lattice vectors                    reciprocal lattice vectors
     4.192000000  0.000000000  0.000000000     0.238549618  0.000000000  0.000000000
     0.000000000  4.192000000  0.000000000     0.000000000  0.238549618  0.000000000
     0.000000000  0.000000000  4.192000000     0.000000000  0.000000000  0.238549618

  length of vectors
     4.192000000  4.192000000  4.192000000     0.238549618  0.238549618  0.238549618

  position of ions in fractional coordinates (direct lattice)
     0.000000000  0.000000000  0.000000000
     0.500000000  0.500000000  0.500000000
     0.500000000  0.500000000  0.000000000
     0.500000000  0.000000000  0.500000000
     0.000000000  0.500000000  0.500000000

  ion indices of the primitive-cell ions
   primitive index   ion index
                 1           1
                 2           2
                 3           3
                 4           4
                 5           5

 KPOINTS: Automatic mesh

Automatic generation of k-mesh.
 Grid dimensions read from file:
 generate k-points for:    6    6    6

 Generating k-lattice:

  Cartesian coordinates                     Fractional coordinates (reciprocal lattice)
     0.039758270  0.000000000  0.000000000     0.166666667  0.000000000  0.000000000
     0.000000000  0.039758270  0.000000000     0.000000000  0.166666667  0.000000000
     0.000000000  0.000000000  0.039758270     0.000000000  0.000000000  0.166666667

  Length of vectors
     0.039758270  0.039758270  0.039758270

  Shift w.r.t. Gamma in fractional coordinates (k-lattice)
     0.500000000  0.500000000  0.500000000

 Subroutine IBZKPT returns following result:

 Found     10 irreducible k-points:

 Following reciprocal coordinates:
            Coordinates               Weight
  0.083333  0.083333  0.083333      8.000000
  0.250000  0.083333  0.083333     24.000000
  0.416667  0.083333  0.083333     24.000000
  0.250000  0.250000  0.083333     24.000000
  0.416667  0.250000  0.083333     48.000000
  0.416667  0.416667  0.083333     24.000000
  0.250000  0.250000  0.250000      8.000000
  0.416667  0.250000  0.250000     24.000000
  0.416667  0.416667  0.250000     24.000000
  0.416667  0.416667  0.416667      8.000000

 Following cartesian coordinates:
            Coordinates               Weight
  0.019879  0.019879  0.019879      8.000000
  0.059637  0.019879  0.019879     24.000000
  0.099396  0.019879  0.019879     24.000000
  0.059637  0.059637  0.019879     24.000000
  0.099396  0.059637  0.019879     48.000000
  0.099396  0.099396  0.019879     24.000000
  0.059637  0.059637  0.059637      8.000000
  0.099396  0.059637  0.059637     24.000000
  0.099396  0.099396  0.059637     24.000000
  0.099396  0.099396  0.099396      8.000000

 SYSTEM =  BaZrO3
 POSCAR =  Ba Zr O

 Startparameter for this run:
   NWRITE =      2    write-flag & timer
   PREC   = accura    normal or accurate (medium, high low for compatibility)
   ISTART =      0    job   : 0-new  1-cont  2-samecut
   ICHARG =      2    charge: 1-file 2-atom 10-const
   ISPIN  =      1    spin polarized calculation?
   LNONCOLLINEAR =      F non collinear calculations
   LSORBIT =      F    spin-orbit coupling
   INIWAV =      1    electr: 0-lowe 1-rand  2-diag
   LASPH  =      T    aspherical Exc in radial PAW
 Electronic Relaxation 1
   ENCUT  =  520.0 eV  38.22 Ry    6.18 a.u.   7.79  7.79  7.79*2*pi/ulx,y,z
   ENINI  =  520.0     initial cutoff
   ENAUG  =  605.4 eV  augmentation charge cutoff
   NELM   =    100;   NELMIN=  5; NELMDL= -5     # of ELM steps
   EDIFF  = 0.1E-05   stopping-criterion for ELM
   LREAL  =      T    real-space projection
   NLSPLINE    = F    spline interpolate recip. space projectors
   LCOMPAT=      F    compatible to vasp.4.4
   GGA_COMPAT  = T    GGA compatible to vasp.4.4-vasp.4.6
   LMAXPAW     = -100 max onsite density
   LMAXMIX     =    2 max onsite mixed and CHGCAR
   VOSKOWN=      0    Vosko Wilk Nusair interpolation
   ROPT   =   -0.00025  -0.00025  -0.00025
 Ionic relaxation
   EDIFFG = -.1E-01   stopping-criterion for IOM
   NSW    =    100    number of steps for IOM
   NBLOCK =      1;   KBLOCK =    100    inner block; outer block
   IBRION =      2    ionic relax: 0-MD 1-quasi-New 2-CG
   NFREE  =      1    steps in history (QN), initial steepest desc. (CG)
   ISIF   =      3    stress and relaxation
   IWAVPR =     11    prediction:  0-non 1-charg 2-wave 3-comb
   ISYM   =      2    0-nonsym 1-usesym 2-fastsym
   LCORR  =      T    Harris-Foulkes like correction to forces

   POTIM  = 0.5000    time-step for ionic-motion
   TEIN   =    0.0    initial temperature
   TEBEG  =    0.0;   TEEND  =   0.0 temperature during run
   SMASS  =  -3.00    Nose mass-parameter (am)
   estimated Nose-frequenzy (Omega)   =  0.10E-29 period in steps = 0.13E+47 mass=  -0.402E-27a.u.
   SCALEE = 1.0000    scale energy and forces
[...]
 k-point     7 :   0.2500 0.2500 0.2500  plane waves:    1998
 k-point     8 :   0.4167 0.2500 0.2500  plane waves:    1986
 k-point     9 :   0.4167 0.4167 0.2500  plane waves:    1993
 k-point    10 :   0.4167 0.4167 0.4167  plane waves:    1965

 maximum and minimum number of plane-waves per node :      1006      972

 maximum number of plane-waves:      1998
 maximum index in each direction:
   IXMAX=    7   IYMAX=    7   IZMAX=    7
   IXMIN=   -8   IYMIN=   -8   IZMIN=   -8

 real space projection operators:
  max/ min on nodes  :       1349.25       1345.12

 parallel 3D FFT for wavefunctions:
    minimum data exchange during FFTs selected (reduces bandwidth)
 parallel 3D FFT for charge:
    minimum data exchange during FFTs selected (reduces bandwidth)

 Broyden mixing: mesh for mixing (old mesh)
   NGX = 15   NGY = 15   NGZ = 15
  (NGX  = 64   NGY  = 64   NGZ  = 64)
  gives a total of   3375 points

 initial charge density was supplied:
 charge density of overlapping atoms calculated
 number of electron      40.0000000 magnetization
 keeping initial charge density in first step

 Maximum index for non-local projection operator         4189
 Maximum index for augmentation-charges        27157 (set IRDMAX)

 First call to EWALD:  gamma=   0.423
 Maximum number of real-space cells 3x 3x 3
 Maximum number of reciprocal cells 3x 3x 3

--------------------------------------- Ionic step        1  -------------------------------------------

--------------------------------------- Iteration      1(   1)  ---------------------------------------

 eigenvalue-minimisations  :   480
 total energy-change (2. order) : 0.3344012E+03  (-0.2253394E+04)
 number of electron      40.0000000 magnetization
 augmentation part       40.0000000 magnetization

 Free energy of the ion-electron system (eV)
  alpha Z        PSCENC =       240.34259355
  Ewald energy   TEWEN  =     -2693.37944630
  -Hartree energ DENC   =      -682.79388567
  -exchange      EXHF   =         0.00000000
  -V(xc)+E(xc)   XCENC  =       159.34887639
  PAW double counting   =      2561.05225630    -2544.85325127
  entropy T*S    EENTRO =        -0.00004770
  eigenvalues    EBANDS =        12.53706383
  atomic energy  EATOM  =      3282.14706587
  Solvation  Ediel_sol  =         0.00000000
  free energy    TOTEN  =       334.40122501 eV

  energy without entropy =      334.40127271  energy(sigma->0) =      334.40124886

[...]

 eigenvalue-minimisations  :   632
 total energy-change (2. order) :-0.3626836E+03  (-0.3568543E+03)
 number of electron      40.0000000 magnetization
 augmentation part       40.0000000 magnetization

[...]

 Broyden mixing:
  rms(total) = 0.28881E+01    rms(broyden)= 0.28879E+01
  rms(prec ) = 0.45999E+01
  weight for this iteration     100.00

[...]

 eigenvalues of (default mixing * dielectric matrix)
  average eigenvalue GAMMA=   1.1306
  1.1306

[...]

 average (electrostatic) potential at core
  the test charge radii are     1.2192  1.0638  0.7215
  (the norm of the test charge is              1.0000)
       1 -33.5773       2 -78.1381       3 -69.3339       4 -69.3339       5 -69.3339

 E-fermi :   3.9454     XC(G=0): -10.7690     alpha+bet :-13.8810

 val. band max:        3.7122762363   @ k =   0.4167   0.4167   0.4167
 cond. band min:       7.2914691132   @ k =   0.0833   0.0833   0.0833
 fundamental gap:      3.5791928769
 Fermi energy:         3.9453927355

 k-point     1 :       0.0833    0.0833    0.0833
  band No.  band energies     occupation
      1     -43.2349      2.00000
      2     -21.5787      2.00000
      3     -21.4127      2.00000
      4     -21.4127      2.00000
      5     -21.3527      2.00000
      6     -12.5460      2.00000
      7     -12.2502      2.00000
      8     -12.2502      2.00000
      9      -6.6726      2.00000
     10      -6.6726      2.00000
     11      -6.5996      2.00000
     12       2.0400      2.00000
     13       2.2507      2.00000
     14       2.2507      2.00000
     15       2.5092      2.00000
     16       2.5092      2.00000
     17       2.8613      2.00000
     18       3.2217      2.00000
     19       3.3696      2.00000
     20       3.3696      2.00000
     21       7.2915      0.00000
     22       7.3070      0.00000
     23       7.3070      0.00000
     24       8.7942      0.00000

[...]

 soft charge-density along one line, spin component           1
         0         1         2         3         4         5         6         7         8         9
 total charge-density along one line

------------------------ aborting loop because EDIFF is reached ----------------------------------------

 total charge

# of ion       s       p       d       tot
    1        2.002   5.634   0.271   7.906
    2        2.200   6.087   1.431   9.718
    3        1.562   3.487   0.000   5.048
    4        1.562   3.487   0.000   5.048
    5        1.562   3.487   0.000   5.048
tot          8.886  22.181   1.702  32.769

  FORCE on cell =-STRESS in cart. coord.  units (eV):
  Direction    XX          YY          ZZ          XY          YZ          ZX
  Alpha Z   240.34259   240.34259   240.34259
  Ewald    -897.79392  -897.79392  -897.79392     0.00000    -0.00000    -0.00000
  Hartree   236.96865   236.96865   236.96865    -0.00000    -0.00000    -0.00000
  E(xc)    -175.92085  -175.92085  -175.92085    -0.00000    -0.00000    -0.00000
  Local     -60.55129   -60.55129   -60.55129     0.00000    -0.00000     0.00000
  n-local  -124.71919  -119.27031  -112.03516     0.11257     0.32630     0.17717
  augment    13.58374    13.58374    13.58374     0.00000     0.00000     0.00000
  Kinetic   758.58411   767.14957   767.26816    -3.29757    -4.19935    -2.99551
  Fock        0.00000     0.00000     0.00000     0.00000     0.00000     0.00000
  Total       2.28797     2.28797     2.28797     0.00000     0.00000     0.00000
  in kB      49.76201    49.76201    49.76201     0.00000     0.00000     0.00000

 VOLUME and BASIS-vectors are now :
  energy-cutoff  :      520.00
  volume of cell :       73.67
      direct lattice vectors                 reciprocal lattice vectors
     4.192000000  0.000000000  0.000000000     0.238549618  0.000000000  0.000000000
     0.000000000  4.192000000  0.000000000     0.000000000  0.238549618  0.000000000
     0.000000000  0.000000000  4.192000000     0.000000000  0.000000000  0.238549618

[...]

 FORCES acting on ions
    electron-ion (+dipol)            ewald-force                    non-local-force                 convergence-correction
   -.239E-14 -.148E-14 0.656E-15   -.367E-14 -.107E-14 -.461E-14   -.457E-24 -.444E-24 0.642E-24   0.376E-14 -.689E-14 -.454E-14
   0.146E-12 -.188E-11 -.268E-11   0.536E-14 0.798E-14 0.754E-14   -.936E-23 -.864E-23 -.107E-22   0.163E-13 0.148E-13 0.197E-13
   0.138E-12 -.167E-11 -.534E-12   0.720E-14 0.306E-14 -.647E-14   -.181E-22 0.297E-22 0.834E-24   0.132E-13 0.204E-13 -.986E-14
   0.141E-12 0.107E-15 -.227E-11   0.153E-15 -.939E-14 0.201E-14   0.981E-24 -.571E-23 -.364E-22   0.232E-13 -.367E-14 0.240E-13
   -.623E-15 0.138E-12 0.139E-12   -.906E-14 0.514E-15 0.200E-14   0.988E-24 -.352E-22 0.372E-23   0.162E-13 0.189E-13 0.166E-13
   0.422E-12 -.341E-11 -.535E-11   -.209E-16 0.110E-14 0.468E-15   -.259E-22 -.203E-22 -.419E-22   0.727E-13 0.435E-13 0.458E-13

 POSITION                                       TOTAL-FORCE (eV/Angst)
      0.00000      0.00000      0.00000        -0.000000      0.000000     -0.000000
      2.09600      2.09600      2.09600         0.000000     -0.000000      0.000000
      2.09600      2.09600      0.00000        -0.000000     -0.000000      0.000000
      2.09600      0.00000      2.09600        -0.000000      0.000000     -0.000000
      0.00000      2.09600      2.09600         0.000000      0.000000     -0.000000
    total drift:                                0.000000     -0.000000     -0.000000

  FREE ENERGIE OF THE ION-ELECTRON SYSTEM (eV)
  free  energy   TOTEN  =       -41.68868722 eV

  energy  without entropy=      -41.68868722  energy(sigma->0) =      -41.68868722

 stress matrix after NEB project (eV)
      2.28797      0.00000      0.00000
      0.00000      2.28797      0.00000
      0.00000      0.00000      2.28797
  FORCES: max atom, RMS     0.000000    0.000000
  FORCE total and by dimension    0.000000    0.000000
  Stress total and by dimension    3.962888    2.287974

[...]

 d Force = 0.0000000E+00[ 0.000E+00, 0.000E+00]  d Energy =-0.4651878E-02 0.465E-02
 d Force = 0.0000000E+00[ 0.000E+00, 0.000E+00]  d Ewald  =-0.5817373E+02 0.582E+02

 stress matrix after NEB project (eV)
     -2.35896      0.00000     -0.00000
      0.00000     -2.35896      0.00000
      0.00000      0.00000     -2.35896
  FORCES: max atom, RMS     0.000000    0.000000
  FORCE total and by dimension    0.000000    0.000000
  Stress total and by dimension    4.085837    2.358959
 Steepest descent step on ions:
 trial-energy change:    0.004652  1 .order    0.002351   -0.151525    0.156226
  (g-gl).g = 0.152E+00      g.g   = 0.152E+00  gl.gl    = 0.000E+00
 g(Force)  = 0.234E-59   g(Stress)= 0.152E+00 ortho     = 0.000E+00
 gamma     =   0.00000
 trial     =   1.00000
 opt step  =   0.48116  (harmonic =   0.49236) maximal distance =0.00000000
 next E    =   -41.724885   (d E  =  -0.03620)

 real space projection operators:
  max/ min on nodes  :       1313.25       1305.75

--------------------------------------- Ionic step        3  -------------------------------------------

[...]

 eigenvalue-minimisations  :   776
 total energy-change (2. order) : 0.3002788E-02  (-0.4008169E-02)
 number of electron      39.9999999 magnetization
 augmentation part        0.4553636 magnetization

[...]

 Broyden mixing:
  rms(total) = 0.52718E-03    rms(broyden)= 0.52665E-03
  rms(prec ) = 0.11029E-02
  weight for this iteration     100.00

 eigenvalues of (default mixing * dielectric matrix)
  average eigenvalue GAMMA=   1.4345
  2.5839  2.3557  1.7232  1.0105  1.0105  0.8065  0.5511

[...]

--------------------------------------- Iteration      3(   9)  ---------------------------------------

 eigenvalue-minimisations  :   488
 total energy-change (2. order) :-0.1215221E-06  (-0.2257716E-06)
 number of electron      39.9999999 magnetization
 augmentation part        0.4310799 magnetization

 Free energy of the ion-electron system (eV)
  alpha Z        PSCENC =       232.84375948
  Ewald energy   TEWEN  =     -2665.07127338
  -Hartree energ DENC   =      -720.73209778
  -exchange      EXHF   =         0.00000000
  -V(xc)+E(xc)   XCENC  =       161.25882724
  PAW double counting   =      4363.86966199    -4350.95518850
  entropy T*S    EENTRO =        -0.00000000
  eigenvalues    EBANDS =      -345.08535416
  atomic energy  EATOM  =      3282.14706587
  Solvation  Ediel_sol  =         0.00000000
  free energy    TOTEN  =       -41.72459923 eV

  energy without entropy =      -41.72459923  energy(sigma->0) =      -41.72459923

 average (electrostatic) potential at core
  the test charge radii are     1.2192  1.0638  0.7215
  (the norm of the test charge is              1.0000)
       1 -33.9359       2 -78.6010       3 -69.5692       4 -69.5692       5 -69.5692

 E-fermi :   3.7028     XC(G=0): -10.6095     alpha+bet :-13.4479

 val. band max:        3.4920564760   @ k =   0.4167   0.4167   0.4167
 cond. band min:       6.9824277538   @ k =   0.0833   0.0833   0.0833
 fundamental gap:      3.4903712778
 Fermi energy:         3.7027543020

[...]

 k-point    10 :       0.4167    0.4167    0.4167
  band No.  band energies     occupation
      1     -43.6490      2.00000
      2     -21.9652      2.00000
      3     -21.9622      2.00000
      4     -21.9622      2.00000
      5     -21.7467      2.00000
      6     -11.7468      2.00000
      7     -11.6944      2.00000
      8     -11.6944      2.00000
      9      -7.3612      2.00000
     10      -7.3612      2.00000
     11      -7.2823      2.00000
     12       0.0735      2.00000
     13       0.0735      2.00000
     14       0.2422      2.00000
     15       0.8977      2.00000
     16       1.0646      2.00000
     17       1.0646      2.00000
     18       3.4019      2.00000
     19       3.4019      2.00000
     20       3.4921      2.00000
     21       9.3797      0.00000
     22       9.5408      0.00000
     23       9.5408      0.00000
     24      10.2633      0.00000

 soft charge-density along one line, spin component           1
         0         1         2         3         4         5         6         7         8         9
 total charge-density along one line

------------------------ aborting loop because EDIFF is reached ----------------------------------------

[...]

  FORCE on cell =-STRESS in cart. coord.  units (eV):
  Direction    XX          YY          ZZ          XY          YZ          ZX
  Alpha Z   232.84376   232.84376   232.84376
  Ewald    -888.35785  -888.35785  -888.35785    -0.00000     0.00000    -0.00000
  Hartree   240.25265   240.25265   240.25265    -0.00000    -0.00000    -0.00000
  E(xc)    -175.49133  -175.49133  -175.49133     0.00000    -0.00000    -0.00000
  Local     -66.32423   -66.32423   -66.32423    -0.00000     0.00000     0.00000
  n-local  -123.68117  -118.40445  -111.36810     0.13415     0.34145     0.19263
  augment    13.77199    13.77199    13.77199     0.00000     0.00000     0.00000
  Kinetic   755.72386   763.83443   763.80785    -3.20811    -4.06075    -2.91084
  Fock        0.00000     0.00000     0.00000     0.00000     0.00000     0.00000
  Total      -0.00087    -0.00087    -0.00087     0.00000    -0.00000     0.00000
  in kB      -0.01829    -0.01829    -0.01829     0.00000    -0.00000     0.00000

 VOLUME and BASIS-vectors are now :
  energy-cutoff  :      520.00
  volume of cell :       76.04
      direct lattice vectors                 reciprocal lattice vectors
     4.236527087  0.000000000  0.000000000     0.236042395 -0.000000000 -0.000000000
     0.000000000  4.236527087  0.000000000    -0.000000000  0.236042395 -0.000000000
     0.000000000  0.000000000  4.236527087    -0.000000000 -0.000000000  0.236042395

  length of vectors
     4.236527087  4.236527087  4.236527087     0.236042395  0.236042395  0.236042395

 FORCES acting on ions
    electron-ion (+dipol)            ewald-force                    non-local-force                 convergence-correction
   0.177E-15 -.134E-14 0.228E-14   0.163E-14 -.172E-14 -.365E-14   0.974E-25 -.664E-25 0.169E-26   -.114E-13 -.811E-14 -.158E-13
   0.147E-12 -.185E-11 -.266E-11   -.759E-14 -.111E-13 -.840E-14   -.403E-24 -.325E-24 -.179E-24   0.292E-13 0.137E-13 0.320E-13
   0.140E-12 -.166E-11 -.544E-12   0.821E-15 0.475E-14 0.104E-13   0.154E-22 -.117E-22 -.226E-25   0.217E-13 0.787E-14 -.115E-13
   0.138E-12 0.290E-15 -.225E-11   0.332E-14 0.979E-14 0.625E-15   -.114E-23 0.630E-27 0.623E-23   0.332E-13 -.116E-13 0.354E-13
   0.180E-14 0.141E-12 0.139E-12   0.153E-14 -.228E-14 0.647E-15   -.133E-25 -.760E-23 0.375E-23   -.196E-13 0.133E-13 0.427E-13
   0.428E-12 -.337E-11 -.531E-11   -.292E-15 -.605E-15 -.430E-15   0.140E-22 -.197E-22 0.978E-23   0.531E-13 0.152E-13 0.828E-13

 POSITION                                       TOTAL-FORCE (eV/Angst)
      0.00000      0.00000      0.00000         0.000000      0.000000      0.000000
      2.11826      2.11826      2.11826        -0.000000     -0.000000     -0.000000
      2.11826      2.11826      0.00000         0.000000     -0.000000      0.000000
      2.11826      0.00000      2.11826        -0.000000      0.000000      0.000000
      0.00000      2.11826      2.11826         0.000000      0.000000     -0.000000
    total drift:                                0.000000     -0.000000     -0.000000

  FREE ENERGIE OF THE ION-ELECTRON SYSTEM (eV)
  free  energy   TOTEN  =       -41.72459923 eV

  energy  without entropy=      -41.72459923  energy(sigma->0) =      -41.72459923

 d Force = 0.0000000E+00[ 0.000E+00, 0.000E+00]  d Energy = 0.4056389E-01-0.406E-01
 d Force = 0.0000000E+00[ 0.000E+00, 0.000E+00]  d Ewald  = 0.2986555E+02-0.299E+02

 stress matrix after NEB project (eV)
     -0.00087     -0.00000      0.00000
      0.00000     -0.00087      0.00000
     -0.00000     -0.00000     -0.00087
  FORCES: max atom, RMS     0.000000    0.000000
  FORCE total and by dimension    0.000000    0.000000
  Stress total and by dimension    0.001503    0.000868

 reached required accuracy - stopping structural energy minimisation

 total charge

# of ion       s       p       d       tot
    1        2.000   5.631   0.254   7.885
    2        2.192   6.075   1.389   9.655
    3        1.561   3.471   0.000   5.032
    4        1.561   3.471   0.000   5.032
    5        1.561   3.471   0.000   5.032
tot          8.874  22.119   1.643  32.636