 vasp.6.4.3 19Mar24 (build Jul 09 2024 15:45:28) complex

 executed on             LinuxIFC date 2024.10.29  12:23:56

 INCAR:
   ENCUT = 400.000000
   POTIM = 0.150000
   EDIFF = 1.00e-04
   EDIFFG = -1.00e-01
   ALGO = Normal
   GGA = PE
   PREC = Normal
   IBRION = 2
   IDIPOL = 3
   ISMEAR = 0
   ISPIN = 2
   LMAXMIX = 6
   LORBIT = 10
   NELM = 30
   NELMIN = 5
   NPAR = 10
   NSIM = 10
   NSW = 5
   KGAMMA = .TRUE.
   LASPH = .TRUE.
   LCHARG = .FALSE.
   LDIPOL = .TRUE.
   LWAVE = .FALSE.
   LREAL = .TRUE.
   MAGMOM = 8*1.0000 26*0.0000 2*0.5000

 POTCAR:    PAW_PBE Cr_pv 02Aug2007
 POTCAR:    PAW_PBE La 06Sep2000
 POTCAR:    PAW_PBE O 08Apr2002
 POTCAR:    PAW_PBE H 15Jun2001
 POTCAR:    PAW_PBE Cr_pv 02Aug2007
   VRHFIN =Cr : p6d5s1

   TITEL  = PAW_PBE Cr_pv 02Aug2007
   POMASS =   51.996; ZVAL   =   12.000    mass and valenz
   ENMAX  =  265.681; ENMIN  =  199.261 eV

   TITEL  = PAW_PBE La 06Sep2000
   POMASS =  138.900; ZVAL   =   11.000    mass and valenz
   ENMAX  =  219.292; ENMIN  =  164.469 eV

   TITEL  = PAW_PBE O 08Apr2002
   POMASS =   16.000; ZVAL   =    6.000    mass and valenz
   ENMAX  =  400.000; ENMIN  =  300.000 eV

   TITEL  = PAW_PBE H 15Jun2001
   POMASS =    1.000; ZVAL   =    1.000    mass and valenz
   ENMAX  =  250.000; ENMIN  =  200.000 eV

  PAW_PBE Cr_pv 02Aug2007               :
  PAW_PBE La 06Sep2000                  :
  PAW_PBE O 08Apr2002                   :
  PAW_PBE H 15Jun2001                   :

 POSCAR: Cr La O  H
  positions in cartesian coordinates

 exchange-correlation table for PE
   RHO(1)=    0.500       N(1)  =     2000
   RHO(2)=  100.500       N(2)  =     4000

 VTST: version 4.1, (05/19/21)

 CHAIN: initializing optimizer

 OPT: Using VASP Conjugate-Gradient optimizer
 CHAIN: Read ICHAIN            0

 POSCAR: Cr La O  H
  positions in cartesian coordinates

 ion  position               nearest neighbor table
   1  0.000  0.500  0.003-  16 1.91  18 1.97  15 2.18  10 3.23   9 3.35   9 3.42
   2  0.500  0.000  0.003-  15 1.91  17 1.97  16 2.18   9 3.23  10 3.35  10 3.42
   3  0.500  0.000  0.136-  20 1.91  21 1.91  17 1.97  23 1.97  22 2.18  19 2.18   9 3.23  11 3.23
                            10 3.35  12 3.35  12 3.42  10 3.42
   4  0.000  0.500  0.136-  19 1.91  22 1.91  18 1.97  24 1.97  20 2.18  21 2.18  10 3.23  12 3.23
                            11 3.35   9 3.35   9 3.42  11 3.42
   5  1.000  0.499  0.269-  30 1.90  28 1.97  25 2.00  24 2.01  27 2.13  26 2.13  14 3.25  12 3.26
                            13 3.34  11 3.37
   6  0.500  0.999  0.269-  29 1.90  27 1.97  26 2.00  23 2.01  28 2.13  25 2.13  13 3.25  11 3.26
                            14 3.34  12 3.37
   7  0.489  0.003  0.400-  33 1.89  29 1.97  32 2.02  34 2.12  31 2.16  13 3.23  14 3.34  14 3.35

   8  0.011  0.503  0.400-  34 1.89  30 1.97  31 2.02  35 2.04  33 2.12  32 2.16  14 3.23  13 3.34
                            13 3.35
   9  0.508  0.549  0.070-  18 2.43  16 2.46  19 2.46  17 2.56  15 2.65  20 2.65  22 2.70   3 3.23
                             2 3.23   4 3.35   1 3.35   4 3.42   1 3.42
  10  0.992  0.049  0.070-  17 2.43  15 2.46  20 2.46  18 2.56  19 2.65  16 2.65  21 2.70   4 3.23
                             1 3.23   3 3.35   2 3.35   3 3.42   2 3.42
  11  0.492  0.451  0.202-  25 2.40  24 2.43  22 2.46  23 2.56  28 2.64  21 2.65  26 2.66  19 2.70
                             3 3.23   6 3.26   4 3.35   5 3.37   4 3.42
  12  0.008  0.951  0.202-  26 2.40  23 2.43  21 2.46  24 2.56  27 2.64  22 2.65  25 2.66  20 2.70
                             4 3.23   5 3.26   3 3.35   6 3.37   3 3.42
  13  0.510  0.544  0.336-  31 2.36  28 2.43  30 2.45  34 2.59  32 2.59  29 2.68  27 2.76  25 2.76
                             7 3.23   6 3.25   5 3.34   8 3.34   8 3.35
  14  0.990  0.044  0.336-  32 2.36  27 2.43  29 2.45  33 2.59  31 2.59  30 2.68  28 2.76  26 2.76
                             8 3.23   5 3.25   6 3.34   7 3.34   7 3.35
  15  0.774  0.807  0.014-   2 1.91   1 2.18  10 2.46   9 2.65
  16  0.726  0.307  0.014-   1 1.91   2 2.18   9 2.46  10 2.65
  17  0.425  0.987  0.070-   3 1.97   2 1.97  10 2.43   9 2.56
  18  0.075  0.487  0.070-   4 1.97   1 1.97   9 2.43  10 2.56
  19  0.726  0.307  0.126-   4 1.91   3 2.18   9 2.46  10 2.65  11 2.70
  20  0.774  0.807  0.126-   3 1.91   4 2.18  10 2.46   9 2.65  12 2.70
  21  0.226  0.193  0.146-   3 1.91   4 2.18  12 2.46  11 2.65  10 2.70
  22  0.274  0.693  0.146-   4 1.91   3 2.18  11 2.46  12 2.65   9 2.70
  23  0.575  0.013  0.202-   3 1.97   6 2.01  12 2.43  11 2.56
  24  0.925  0.513  0.202-   4 1.97   5 2.01  11 2.43  12 2.56
  25  0.289  0.696  0.256-   5 2.00   6 2.13  11 2.40  12 2.66  13 2.76
  26  0.211  0.196  0.256-   6 2.00   5 2.13  12 2.40  11 2.66  14 2.76
  27  0.792  0.808  0.278-   6 1.97   5 2.13  14 2.43  12 2.64  13 2.76
  28  0.708  0.308  0.278-   5 1.97   6 2.13  13 2.43  11 2.64  14 2.76
  29  0.430  0.004  0.333-   6 1.90   7 1.97  14 2.45  13 2.68
  30  0.070  0.504  0.333-   5 1.90   8 1.97  13 2.45  14 2.68
  31  0.719  0.301  0.388-   8 2.02   7 2.16  13 2.36  14 2.59
  32  0.781  0.801  0.388-   7 2.02   8 2.16  14 2.36  13 2.59
  33  0.213  0.192  0.408-   7 1.89   8 2.12  14 2.59
  34  0.287  0.692  0.408-   8 1.89   7 2.12  13 2.59
  35  0.000  0.494  0.470-  36 0.98   8 2.04
  36  0.000  0.552  0.502-  35 0.98

  LATTYP: Found a simple orthorhombic cell.
 ALAT       =     5.5367000000
 B/A-ratio  =     1.0380370979
 C/A-ratio  =     5.2541031011

  Lattice vectors:

 A1 = (   5.5367000000,   0.0000000000,   0.0000000000)
 A2 = (   0.0000000000,   5.7473000000,   0.0000000000)
 A3 = (   0.0000000000,   0.0000000000,  29.0903926400)

Analysis of symmetry for initial positions (statically):
 Subroutine PRICEL returns:
 Original cell was already a primitive cell.

 Routine SETGRP: Setting up the symmetry group for a
 simple orthorhombic supercell.

 Subroutine GETGRP returns: Found  1 space group operations
 (whereof  1 operations were pure point group operations)
 out of a pool of  8 trial point group operations.

The static configuration has the point symmetry C_1 .

Analysis of symmetry for dynamics (positions and initial velocities):
 Subroutine PRICEL returns:
 Original cell was already a primitive cell.

[...]

The dynamic configuration has the point symmetry C_1 .

Analysis of constrained symmetry for selective dynamics:
 Subroutine PRICEL returns:
 Original cell was already a primitive cell.

[...]

The constrained configuration has the point symmetry C_1 .

Analysis of structural, dynamic, and magnetic symmetry:
 Subroutine PRICEL returns:
 Original cell was already a primitive cell.

 Routine SETGRP: Setting up the symmetry group for a
 simple orthorhombic supercell.

 Subroutine GETGRP returns: Found  1 space group operations
 (whereof  1 operations were pure point group operations)
 out of a pool of  8 trial point group operations.

The overall configuration has the point symmetry C_1 .

 Subroutine INISYM returns: Found  1 space group operations
 (whereof  1 operations are pure point group operations),
 and found     1 'primitive' translations

                                     Primitive cell

  volume of cell :     925.6876

  direct lattice vectors                    reciprocal lattice vectors
     5.536700000  0.000000000  0.000000000     0.180613001  0.000000000  0.000000000
     0.000000000  5.747300000  0.000000000     0.000000000  0.173994745  0.000000000
     0.000000000  0.000000000 29.090392640     0.000000000  0.000000000  0.034375610

  length of vectors
     5.536700000  5.747300000 29.090392640     0.180613001  0.173994745  0.034375610

  position of ions in fractional coordinates (direct lattice)
     0.000000000  0.500000000  0.003437561
     0.500000000  0.000000000  0.003437561
     0.500000000  0.000000000  0.135661627
     0.000000000  0.500000000  0.135661627
     0.999869288  0.499384381  0.269371256
     0.500130712  0.999384381  0.269371256
     0.489395868  0.003155030  0.400064527
     0.010604132  0.503155030  0.400064527
     0.507800000  0.549000000  0.069549594
     0.992200000  0.049000000  0.069549594
     0.492200000  0.451000000  0.201773660
     0.007800000  0.951000000  0.201773660
     0.509573887  0.544166459  0.335817371
     0.990426113  0.044166459  0.335817371
     0.774400000  0.806600000  0.013592369
     0.725600000  0.306600000  0.013592369
     0.425500000  0.987400000  0.069549594
     0.074500000  0.487400000  0.069549594
     0.725600000  0.306600000  0.125506819
     0.774400000  0.806600000  0.125506819
     0.225600000  0.193400000  0.145816435
     0.274400000  0.693400000  0.145816435
     0.574500000  0.012600000  0.201773660
     0.925500000  0.512600000  0.201773660
     0.288705330  0.696341168  0.256143619
     0.211294670  0.196341168  0.256143619
     0.792048047  0.807818652  0.277526194
     0.707951953  0.307818652  0.277526194
     0.429843379  0.003571190  0.333245042
     0.070156621  0.503571190  0.333245042
     0.719086704  0.301287230  0.387742702
     0.780913296  0.801287230  0.387742702
     0.213394579  0.192287266  0.408348745
     0.286605421  0.692287266  0.408348745
     0.000000000  0.493526177  0.470224844
     0.000000000  0.551790346  0.501851260

  ion indices of the primitive-cell ions
   primitive index   ion index
                 1           1
                 2           2
                 3           3
                 4           4
                 5           5
                 6           6
                 7           7
                 8           8
                 9           9
                10          10
                11          11
                12          12
                13          13
                14          14
                15          15
                16          16
                17          17
                18          18
                19          19
                20          20
                21          21
                22          22
                23          23
                24          24
                25          25
                26          26
                27          27
                28          28
                29          29
                30          30
                31          31
                32          32
                33          33
                34          34
                35          35
                36          36

 KPOINTS: KPOINTS created by Atomic Simulation Env

Automatic generation of k-mesh.
 Grid dimensions read from file:
 generate k-points for:    1    1    1

 Generating k-lattice:

  Cartesian coordinates                     Fractional coordinates (reciprocal lattice)
     0.180613001  0.000000000  0.000000000     1.000000000  0.000000000  0.000000000
     0.000000000  0.173994745  0.000000000     0.000000000  1.000000000  0.000000000
     0.000000000  0.000000000  0.034375610     0.000000000  0.000000000  1.000000000

  Length of vectors
     0.180613001  0.173994745  0.034375610

  Shift w.r.t. Gamma in fractional coordinates (k-lattice)
     0.000000000  0.000000000  0.000000000

 Subroutine IBZKPT returns following result:

[...]
     36     -17.6045      1.00000
     37     -17.5552      1.00000
     38     -17.4563      1.00000
     39     -17.3399      1.00000
     40     -17.2608      1.00000
     41     -17.0736      1.00000
     42     -17.0386      1.00000
     43     -17.0008      1.00000
     44     -16.9440      1.00000
     45     -16.8757      1.00000
     46     -16.8021      1.00000
     47     -16.6288      1.00000
     48     -16.5457      1.00000
     49     -16.3732      1.00000
     50     -16.0658      1.00000
     51     -15.8662      1.00000
     52     -14.6216      1.00000
     53     -14.6150      1.00000
     54     -14.4892      1.00000
     55     -14.3701      1.00000
     56     -14.3162      1.00000
     57     -14.2402      1.00000
     58     -14.0718      1.00000
     59     -14.0362      1.00000
     60     -13.9878      1.00000
[...]
    166       3.1676      0.00000
    167       3.1890      0.00000
    168       3.7149      0.00000
    169       3.8576      0.00000
    170       3.9539      0.00000
    171       4.0210      0.00000
    172       4.0459      0.00000
    173       4.0547      0.00000
    174       4.1333      0.00000
    175       4.1674      0.00000
    176       4.1824      0.00000
    177       4.2131      0.00000
    178       4.2285      0.00000
    179       4.2549      0.00000
    180       4.3060      0.00000
 Fermi energy:         1.4198239956

 spin component 2

 k-point     1 :       0.0000    0.0000    0.0000
  band No.  band energies     occupation
      1     -43.6352      1.00000
      2     -43.2379      1.00000
      3     -43.1320      1.00000
      4     -42.9839      1.00000
      5     -42.8639      1.00000
      6     -42.6835      1.00000
      7     -42.6746      1.00000
      8     -42.6637      1.00000
      9     -42.4007      1.00000
     10     -42.3867      1.00000
     11     -42.0320      1.00000
     12     -41.8651      1.00000
     13     -40.9698      1.00000
     14     -40.8615      1.00000
     15     -40.7296      1.00000
     16     -40.7228      1.00000
     17     -40.7001      1.00000
     18     -40.6355      1.00000
     19     -40.5831      1.00000
     20     -40.5709      1.00000
     21     -40.5193      1.00000
     22     -40.4999      1.00000
     23     -40.4884      1.00000
     24     -40.3528      1.00000
     25     -30.8845      1.00000
     26     -30.7830      1.00000
     27     -30.6196      1.00000
     28     -30.5153      1.00000
     29     -30.1084      1.00000
     30     -29.9738      1.00000
     31     -18.2657      1.00000
     32     -17.9180      1.00000
     33     -17.8639      1.00000
     34     -17.8070      1.00000
     35     -17.6722      1.00000
     36     -17.5748      1.00000
     37     -17.5375      1.00000
     38     -17.4443      1.00000
     39     -17.3169      1.00000
     40     -17.2391      1.00000
     41     -17.0691      1.00000
     42     -17.0164      1.00000
     43     -16.9744      1.00000
     44     -16.9059      1.00000
     45     -16.8402      1.00000
     46     -16.7791      1.00000
     47     -16.5831      1.00000
     48     -16.4894      1.00000
     49     -16.3301      1.00000
     50     -16.0698      1.00000
     51     -15.8623      1.00000
     52     -14.6170      1.00000
     53     -14.6033      1.00000
     54     -14.4802      1.00000
     55     -14.3459      1.00000
     56     -14.2963      1.00000
     57     -14.2219      1.00000
     58     -14.0700      1.00000
     59     -14.0156      1.00000
     60     -13.9755      1.00000
[...]
    166       3.8331      0.00000
    167       3.8923      0.00000
    168       3.9803      0.00000
    169       4.0604      0.00000
    170       4.0681      0.00000
    171       4.0899      0.00000
    172       4.0933      0.00000
    173       4.1708      0.00000
    174       4.1981      0.00000
    175       4.2502      0.00000
    176       4.2644      0.00000
    177       4.2709      0.00000
    178       4.2780      0.00000
    179       4.2894      0.00000
    180       4.3208      0.00000

[...]

 soft charge-density along one line, spin component           2
         0         1         2         3         4         5         6         7         8         9
 total charge-density along one line

------------------------ aborting loop EDIFF was not reached (unconverged)  ----------------------------

[...]

  FORCE on cell =-STRESS in cart. coord.  units (eV):
  Direction    XX          YY          ZZ          XY          YZ          ZX
  Alpha Z   597.55484   597.55484   597.55484
  Ewald  153829.49137153323.59435************     5.72940    77.13109   -94.87273
  Hartree160548.72903160405.99984************     6.33022    27.67055   -69.33226
  E(xc)   -1395.99250 -1397.57007 -1396.66274     0.00795     0.30789    -0.12123
  Local  ************************317876.55701   -10.66050   -99.96119   163.01738
  n-local   153.14432   144.44418   142.18933    -1.50370    -1.33743     0.42024
  augment   615.24417   621.77626   612.02190     0.01326     0.61454     1.06233
  Kinetic  4997.99442  5002.41533  4935.41287    -0.01160    -1.81850     0.05359
  Fock        0.00000     0.00000     0.00000     0.00000     0.00000     0.00000
  Total      15.80902     4.75969   -32.43672    -0.09498     2.60697     0.22732
  in kB      27.36221     8.23805   -56.14137    -0.16439     4.51214     0.39344

 VOLUME and BASIS-vectors are now :
  energy-cutoff  :      400.00
  volume of cell :      925.69
      direct lattice vectors                 reciprocal lattice vectors
     5.536700000  0.000000000  0.000000000     0.180613001  0.000000000  0.000000000
     0.000000000  5.747300000  0.000000000     0.000000000  0.173994745  0.000000000
     0.000000000  0.000000000 29.090392640     0.000000000  0.000000000  0.034375610

  length of vectors
     5.536700000  5.747300000 29.090392640     0.180613001  0.173994745  0.034375610

 FORCES acting on ions
    electron-ion (+dipol)            ewald-force                    non-local-force                 convergence-correction
   -.248E+03 -.372E+02 0.453E+04   0.244E+03 0.366E+02 -.452E+04   0.179E+01 0.228E+01 -.852E+01   0.648E+00 -.453E+00 0.299E+01
   0.248E+03 -.378E+02 0.453E+04   -.244E+03 0.366E+02 -.452E+04   -.183E+01 0.266E+01 -.769E+01   -.592E+00 -.436E+00 0.302E+01
   0.731E+01 0.128E+00 0.185E+04   -.716E+01 -.657E-01 -.183E+04   -.115E+00 -.126E+00 -.624E+00   -.159E+00 0.126E-01 -.180E+02
   -.743E+01 0.179E+00 0.185E+04   0.711E+01 -.156E+00 -.183E+04   0.217E+00 -.832E-01 -.737E+00   0.209E+00 0.600E-02 -.177E+02
   -.536E-01 -.392E+01 -.112E+04   0.104E+01 0.297E+01 0.114E+04   -.365E+00 -.366E-01 -.712E+00   -.238E+00 0.269E+00 -.260E+02
   0.289E+01 -.357E+01 -.111E+04   -.364E+01 0.291E+01 0.113E+04   0.967E-02 -.555E-01 0.475E+00   0.402E+00 0.246E+00 -.276E+02
   -.125E+03 0.478E+02 -.411E+04   0.122E+03 -.432E+02 0.412E+04   0.232E+01 -.273E+01 0.420E+01   0.525E+00 -.101E+01 -.790E+01
   0.106E+03 0.567E+02 -.396E+04   -.103E+03 -.512E+02 0.397E+04   -.255E+01 -.468E+01 -.421E+01   -.780E+00 0.822E+00 -.384E+01
   0.724E+02 0.488E+02 0.306E+04   -.716E+02 -.487E+02 -.305E+04   0.752E+00 -.175E+01 0.213E+00   -.414E+00 0.506E+00 -.828E+01
   -.723E+02 0.491E+02 0.306E+04   0.716E+02 -.487E+02 -.305E+04   -.711E+00 -.171E+01 0.168E+00   0.158E+00 0.247E+00 -.837E+01
   -.123E+02 -.556E+02 0.341E+03   0.123E+02 0.546E+02 -.319E+03   -.530E+00 0.202E+01 -.232E+00   0.232E-01 -.984E-01 -.218E+02
   0.121E+02 -.558E+02 0.341E+03   -.118E+02 0.549E+02 -.319E+03   0.382E+00 0.198E+01 -.238E+00   0.151E-02 -.187E+00 -.219E+02
   0.139E+02 0.372E+02 -.241E+04   -.136E+02 -.361E+02 0.243E+04   -.226E+00 -.484E+00 -.484E+00   0.192E+00 -.503E+00 -.214E+02
   -.165E+02 0.298E+02 -.240E+04   0.156E+02 -.295E+02 0.243E+04   0.750E+00 -.309E+00 -.342E+00   -.348E+00 0.288E-01 -.220E+02
   -.879E+02 0.214E+02 0.213E+04   0.952E+02 -.245E+02 -.214E+04   -.196E+01 0.212E+01 0.618E+01   -.143E+01 0.820E+00 -.378E+00
   0.894E+02 0.228E+02 0.213E+04   -.952E+02 -.245E+02 -.214E+04   0.184E+01 0.228E+01 0.619E+01   0.698E-01 -.899E+00 -.228E+00
   0.761E+02 -.178E+02 0.168E+04   -.778E+02 0.186E+02 -.167E+04   0.942E+00 0.119E+00 -.298E+01   0.756E+00 0.105E+00 -.549E+01
   -.761E+02 -.177E+02 0.168E+04   0.778E+02 0.186E+02 -.167E+04   -.120E+01 -.150E+00 -.372E+01   -.298E+00 0.799E-01 -.459E+01
   0.698E+02 0.279E+02 0.105E+04   -.745E+02 -.297E+02 -.105E+04   -.387E-01 0.144E+01 -.440E+01   0.244E+00 -.226E+00 -.787E+01
   -.694E+02 0.272E+02 0.105E+04   0.745E+02 -.298E+02 -.105E+04   -.467E+00 0.207E+01 -.452E+01   -.700E+00 0.287E+00 -.795E+01
   0.683E+02 -.275E+02 0.796E+03   -.735E+02 0.298E+02 -.785E+03   -.935E+00 -.283E+01 -.145E+01   0.682E+00 -.236E+00 -.956E+01
   -.686E+02 -.280E+02 0.796E+03   0.734E+02 0.297E+02 -.785E+03   0.145E+01 -.217E+01 -.149E+01   -.265E+00 0.147E+00 -.960E+01
   -.434E+02 0.184E+02 0.179E+03   0.453E+02 -.193E+02 -.165E+03   -.228E+01 -.197E+01 -.448E+01   -.227E+00 0.191E-02 -.130E+02
   0.431E+02 0.189E+02 0.176E+03   -.454E+02 -.197E+02 -.163E+03   0.236E+01 -.182E+01 -.439E+01   0.283E+00 -.596E-01 -.121E+02
   -.582E+02 -.130E+02 -.421E+03   0.631E+02 0.140E+02 0.433E+03   -.897E+00 0.228E+01 -.151E+01   -.552E+00 -.593E+00 -.129E+02
   0.593E+02 -.144E+02 -.421E+03   -.632E+02 0.146E+02 0.433E+03   0.122E+01 0.199E+01 -.247E+01   -.475E+00 0.540E+00 -.130E+02
   -.645E+02 0.267E+02 -.682E+03   0.688E+02 -.276E+02 0.697E+03   -.397E+01 0.425E+01 -.347E+01   0.614E+00 -.763E+00 -.131E+02
   0.605E+02 0.208E+02 -.681E+03   -.657E+02 -.225E+02 0.696E+03   0.359E+01 0.350E+01 -.346E+01   0.579E+00 0.539E+00 -.131E+02
   0.459E+02 -.386E+01 -.128E+04   -.480E+02 0.425E+01 0.129E+04   0.696E+01 0.222E+01 0.318E+01   -.842E+00 -.534E+00 -.166E+02
   -.360E+02 -.770E+01 -.133E+04   0.380E+02 0.754E+01 0.135E+04   -.394E+01 0.437E+00 -.330E+01   -.121E+00 0.288E+00 -.131E+02
   0.125E+02 -.207E+02 -.192E+04   -.136E+02 0.208E+02 0.193E+04   0.221E+01 -.295E+01 -.103E+02   0.217E+01 0.338E+01 -.599E+01
   -.110E+02 -.278E+02 -.192E+04   0.996E+01 0.314E+02 0.193E+04   -.397E+01 -.744E+01 -.100E+02   0.215E+01 -.152E+01 -.601E+01
   0.122E+03 -.276E+02 -.216E+04   -.130E+03 0.293E+02 0.217E+04   0.107E+02 -.466E+00 -.163E+02   -.508E+01 0.281E+01 -.380E+00
   -.156E+03 -.496E+02 -.211E+04   0.168E+03 0.516E+02 0.213E+04   -.156E+02 0.457E+01 -.163E+02   0.326E+00 -.197E+01 -.134E+01
   0.461E+02 0.160E+02 -.237E+04   -.477E+02 -.320E+02 0.234E+04   0.328E+01 0.116E+02 0.180E+02   -.506E+00 -.686E-01 0.702E+01
   -.706E+00 -.263E+02 -.419E+03   0.106E+01 0.286E+02 0.424E+03   -.457E-01 -.324E+01 -.806E+01   -.191E-01 -.390E-01 0.102E+01
   0.204E+01 -.616E+01 0.411E+03   -.167E-12 -.284E-13 -.341E-11   -.835E+00 0.128E+02 -.879E+02   -.302E+01 0.154E+01 -.357E+03

 POSITION                                       TOTAL-FORCE (eV/Angst)
      0.00000      2.87365      0.10000        -1.190006      0.998371      3.508934
      2.76835      0.00000      0.10000         1.334362      0.788638      3.669114
      2.76835      0.00000      3.94645        -0.077366     -0.278663      1.463364
      0.00000      2.87365      3.94645         0.160776     -0.281583      1.450576
      0.00018      2.89356      7.82860         0.434193     -0.943361      1.840141
      2.77538      0.01686      7.82525        -0.294745     -0.700150      1.503947
      2.63185      0.05410     11.58089        -0.091412      0.587827      0.245932
      0.09666      2.94059     11.81429        -0.574780      1.403102      2.682645
      2.81154      3.15527      2.02323         1.180227     -1.422940      1.277006
      5.49351      0.28162      2.02323        -1.174867     -1.314899      1.265870
      2.72516      2.59203      5.86967        -0.479573      0.733632      1.139410
      0.04319      5.46568      5.86967         0.712588      0.659843      1.140873
      2.85523      3.12500      9.76546         0.328713     -0.102852      2.910120
      5.44935      0.25173      9.76109        -0.458689     -0.173455      2.869858
      4.28762      4.63577      0.39541         3.894915     -0.391714      2.774805
      4.01743      1.76212      0.39541        -3.831672     -0.583987      2.867763
      2.35587      5.67488      2.02323         0.076606      0.741356     -0.960078
      0.41248      2.80123      2.02323         0.263433      0.566911     -1.428221
      4.01743      1.76212      3.65104        -4.409193     -0.786049     -4.859268
      4.28762      4.63577      3.65104         4.019877     -0.399692     -4.795008
      1.24908      1.11153      4.24186        -5.395049     -1.002620      1.430881
      1.51927      3.98518      4.24186         5.980925     -0.599311      1.506885
      3.18083      0.07242      5.86967        -0.594693     -3.046068     -2.612274
      5.12422      2.94607      5.86967         0.388778     -2.963550     -2.260855
      1.56113      4.01916      7.50118         3.489344      2.460147     -1.773672
      1.20847      1.14507      7.50345        -3.189413      2.441832     -2.609293
      4.35373      4.70297      8.09931         0.916322      2.391834     -1.002670
      3.95396      1.82851      8.09846        -0.996531      2.119662     -0.900215
      2.35492      5.68500      9.70004         4.002830      1.847340      1.818861
      0.41569      2.80489      9.69228        -2.022997      0.332368      2.003956
      3.94129      1.63874     11.33605         3.378179      0.281707     -4.209761
      4.35883      4.55703     11.35793        -2.849647     -5.636403     -4.282103
      1.20745      0.96642     11.96674        -1.902370      3.818824     -3.277001
      1.60200      3.87762     11.94347        -2.607937      4.461352     -4.526512
      5.50278      2.91811     13.66720         1.235327     -4.787358      1.411832
      0.00580      3.24193     14.60831         0.343545     -1.220090     -1.285840
    total drift:                               -1.810195      8.186042    -33.919030

  FREE ENERGIE OF THE ION-ELECTRON SYSTEM (eV)
  free  energy   TOTEN  =      -288.24577043 eV

  energy  without entropy=     -287.92995366  energy(sigma->0) =     -288.08786204

 d Force =-0.3948359E-01[-0.944E+00, 0.865E+00]  d Energy = 0.6980806E-01-0.109E+00
 d Force = 0.3918684E+03[ 0.389E+03, 0.395E+03]  d Ewald  = 0.3918480E+03 0.204E-01

 stress matrix after NEB project (eV)
     15.80902     -0.09500      0.22732
     -0.09498      4.75969      2.61036
      0.22774      2.60697    -32.43672
  FORCES: max atom, RMS     7.630592    2.965975
  FORCE total and by dimension   17.795853    5.636403
  Stress total and by dimension   36.584864   32.436717

 vacuum level on the upper side and lower side of the slab         6.104         3.990

 total charge

[...]

 magnetization (x)

# of ion       s       p       d       f       tot
    1        0.009  -0.001  -1.619   0.000  -1.611
    2       -0.001  -0.005  -1.839   0.000  -1.845
    3        0.004   0.001   0.061   0.000   0.067
    4        0.019   0.025   2.509   0.000   2.553
    5        0.019   0.022   2.567   0.000   2.608
    6        0.019   0.024   2.629   0.000   2.671
    7       -0.007  -0.008  -1.172   0.000  -1.187
    8        0.019   0.021   2.267   0.000   2.307
    9        0.000  -0.002  -0.003  -0.013  -0.018
   10        0.000  -0.001  -0.007  -0.015  -0.023
   11        0.000  -0.001   0.012   0.010   0.022
   12       -0.000  -0.001   0.009   0.009   0.017
   13       -0.000  -0.002   0.008   0.005   0.011
   14       -0.000  -0.002   0.005   0.006   0.009
   15       -0.001   0.012   0.000   0.000   0.011
   16       -0.001   0.008   0.000   0.000   0.007
   17        0.002   0.023   0.000   0.000   0.024
   18        0.000  -0.014   0.000   0.000  -0.014
   19       -0.001  -0.009   0.000   0.000  -0.009
   20        0.001  -0.048   0.000   0.000  -0.048
   21        0.001  -0.045   0.000   0.000  -0.044
   22        0.000  -0.005   0.000   0.000  -0.005
   23        0.000   0.034   0.000   0.000   0.034
   24       -0.000   0.034   0.000   0.000   0.033
   25        0.001  -0.015   0.000   0.000  -0.014
   26        0.001  -0.011   0.000   0.000  -0.011
   27        0.001  -0.007   0.000   0.000  -0.006
   28        0.001  -0.014   0.000   0.000  -0.013
   29       -0.001  -0.026   0.000   0.000  -0.027
   30        0.000   0.027   0.000   0.000   0.027
   31        0.002   0.003   0.000   0.000   0.005
   32       -0.000  -0.035   0.000   0.000  -0.035
   33        0.003   0.008   0.000   0.000   0.011
   34        0.000  -0.033   0.000   0.000  -0.033
   35       -0.000  -0.020   0.000   0.000  -0.021
   36       -0.001  -0.000   0.000   0.000  -0.001
tot          0.088  -0.065   5.427   0.004   5.453