 vasp.6.4.3 19Mar24 (build Jul 09 2024 15:45:28) complex

 executed on             LinuxIFC date 2024.10.30  14:49:31

 INCAR:
   GGA = PE
   PREC = normal
   IBRION = -1
   NSW = 0

 POTCAR:    PAW_PBE Ba_sv 06Sep2000
 POTCAR:    PAW_PBE Zr_sv 04Jan2005
 POTCAR:    PAW_PBE O 08Apr2002
 POTCAR:    PAW_PBE H 15Jun2001
|           W    W    AA    RRRRR   N    N  II  N    N   GGGG   !!!           |
|           W    W   A  A   R    R  NN   N  II  NN   N  G    G  !!!           |
|           W    W  A    A  R    R  N N  N  II  N N  N  G       !!!           |
|           W WW W  AAAAAA  RRRRR   N  N N  II  N  N N  G  GGG   !            |
|           WW  WW  A    A  R   R   N   NN  II  N   NN  G    G                |
|           W    W  A    A  R    R  N    N  II  N    N   GGGG   !!!           |
|     For optimal performance we recommend to set                             |
|       NCORE = 2 up to number-of-cores-per-socket                            |
|     This setting can greatly improve the performance of VASP for DFT.       |
|     The default, NCORE=1 might be grossly inefficient on modern             |
|     multi-core architectures or massively parallel machines. Do your        |
|     Unfortunately you need to use the default for GW and RPA                |
|     calculations (for HF NCORE is supported but not extensively tested      |
|     yet).                                                                   |

   TITEL  = PAW_PBE Ba_sv 06Sep2000
   POMASS =  137.327; ZVAL   =   10.000    mass and valenz
   ENMAX  =  187.181; ENMIN  =  140.386 eV

   TITEL  = PAW_PBE Zr_sv 04Jan2005
   POMASS =   91.224; ZVAL   =   12.000    mass and valenz
   ENMAX  =  229.898; ENMIN  =  172.424 eV

   TITEL  = PAW_PBE O 08Apr2002
   POMASS =   16.000; ZVAL   =    6.000    mass and valenz
   ENMAX  =  400.000; ENMIN  =  300.000 eV

   TITEL  = PAW_PBE H 15Jun2001
   POMASS =    1.000; ZVAL   =    1.000    mass and valenz
   ENMAX  =  250.000; ENMIN  =  200.000 eV

  PAW_PBE Ba_sv 06Sep2000               :
  PAW_PBE Zr_sv 04Jan2005               :
  PAW_PBE O 08Apr2002                   :
  PAW_PBE H 15Jun2001                   :

 POSCAR: Ba Zr O  H
  positions in cartesian coordinates

 exchange-correlation table for PE
   RHO(1)=    0.500       N(1)  =     2000
   RHO(2)=  100.500       N(2)  =     4000

 VTST: version 4.1, (05/19/21)

 CHAIN: initializing optimizer

 OPT: Using VASP Dynamics algorithm
 CHAIN: Read ICHAIN            0

 POSCAR: Ba Zr O  H
  positions in cartesian coordinates

 ion  position               nearest neighbor table
   1  0.000  0.000  0.000-   3 2.96   4 2.96   5 2.96   3 2.96   4 2.96   4 2.96   5 2.96   4 2.96
                             3 2.96   5 2.96   3 2.96   5 2.96   2 3.63   2 3.63   2 3.63   2 3.63
   2  0.500  0.500  0.500-   6 1.14   4 2.10   5 2.10   3 2.10   5 2.10   3 2.10   4 2.10   1 3.63
                             1 3.63   1 3.63   1 3.63   1 3.63   1 3.63   1 3.63   1 3.63
   3  0.500  0.000  0.500-   2 2.10   2 2.10   1 2.96   1 2.96   1 2.96   1 2.96
   4  0.000  0.500  0.500-   2 2.10   2 2.10   1 2.96   1 2.96   1 2.96   1 2.96
   5  0.500  0.500  0.000-   6 0.96   2 2.10   2 2.10   1 2.96   1 2.96   1 2.96   1 2.96
   6  0.500  0.500  0.229-   5 0.96   2 1.14

  LATTYP: Found a simple cubic cell.
 ALAT       =     4.1920000000

  Lattice vectors:

 A1 = (   4.1920000000,   0.0000000000,   0.0000000000)
 A2 = (   0.0000000000,   4.1920000000,   0.0000000000)
 A3 = (   0.0000000000,   0.0000000000,   4.1920000000)

Analysis of symmetry for initial positions (statically):
 Subroutine PRICEL returns:
 Original cell was already a primitive cell.

 Routine SETGRP: Setting up the symmetry group for a
 simple cubic supercell.

 Subroutine GETGRP returns: Found  8 space group operations
 (whereof  8 operations were pure point group operations)
 out of a pool of 48 trial point group operations.

The static configuration has the point symmetry C_4v.

Analysis of symmetry for dynamics (positions and initial velocities):
 Subroutine PRICEL returns:
 Original cell was already a primitive cell.

 Routine SETGRP: Setting up the symmetry group for a
 simple cubic supercell.

 Subroutine GETGRP returns: Found  8 space group operations
 (whereof  8 operations were pure point group operations)
 out of a pool of 48 trial point group operations.

The dynamic configuration has the point symmetry C_4v.

 Subroutine INISYM returns: Found  8 space group operations
 (whereof  8 operations are pure point group operations),
 and found     1 'primitive' translations

                                     Primitive cell

  volume of cell :      73.6654

  direct lattice vectors                    reciprocal lattice vectors
     4.192000000  0.000000000  0.000000000     0.238549618  0.000000000  0.000000000
     0.000000000  4.192000000  0.000000000     0.000000000  0.238549618  0.000000000
     0.000000000  0.000000000  4.192000000     0.000000000  0.000000000  0.238549618

  length of vectors
     4.192000000  4.192000000  4.192000000     0.238549618  0.238549618  0.238549618

  position of ions in fractional coordinates (direct lattice)
     0.000000000  0.000000000  0.000000000
     0.500000000  0.500000000  0.500000000
     0.500000000  0.000000000  0.500000000
     0.000000000  0.500000000  0.500000000
     0.500000000  0.500000000  0.000000000
     0.500000000  0.500000000  0.229007634

  ion indices of the primitive-cell ions
   primitive index   ion index
                 1           1
                 2           2
                 3           3
                 4           4
                 5           5
                 6           6

 KPOINTS: KPOINTS created by Atomic Simulation Env

Automatic generation of k-mesh.
 Grid dimensions read from file:
 generate k-points for:    1    1    1

 Generating k-lattice:

  Cartesian coordinates                     Fractional coordinates (reciprocal lattice)
     0.238549618  0.000000000  0.000000000     1.000000000  0.000000000  0.000000000
     0.000000000  0.238549618  0.000000000     0.000000000  1.000000000  0.000000000
     0.000000000  0.000000000  0.238549618     0.000000000  0.000000000  1.000000000

  Length of vectors
     0.238549618  0.238549618  0.238549618

  Shift w.r.t. Gamma in fractional coordinates (k-lattice)
     0.000000000  0.000000000  0.000000000

 Subroutine IBZKPT returns following result:

 Found      1 irreducible k-points:

 Following reciprocal coordinates:
            Coordinates               Weight
  0.000000  0.000000  0.000000      1.000000

 Following cartesian coordinates:
            Coordinates               Weight
  0.000000  0.000000  0.000000      1.000000

 SYSTEM =  unknown system
 POSCAR =  Ba Zr O  H

 Startparameter for this run:
   NWRITE =      2    write-flag & timer
   PREC   = normal    normal or accurate (medium, high low for compatibility)
   ISTART =      0    job   : 0-new  1-cont  2-samecut
   ICHARG =      2    charge: 1-file 2-atom 10-const
   ISPIN  =      1    spin polarized calculation?
   LNONCOLLINEAR =      F non collinear calculations
   LSORBIT =      F    spin-orbit coupling
   INIWAV =      1    electr: 0-lowe 1-rand  2-diag
   LASPH  =      F    aspherical Exc in radial PAW
 Electronic Relaxation 1
   ENCUT  =  400.0 eV  29.40 Ry    5.42 a.u.   6.84  6.84  6.84*2*pi/ulx,y,z
   ENINI  =  400.0     initial cutoff
   ENAUG  =  605.4 eV  augmentation charge cutoff
   NELM   =     60;   NELMIN=  2; NELMDL= -5     # of ELM steps
   EDIFF  = 0.1E-03   stopping-criterion for ELM
   LREAL  =      F    real-space projection
   NLSPLINE    = F    spline interpolate recip. space projectors
   LCOMPAT=      F    compatible to vasp.4.4
   GGA_COMPAT  = T    GGA compatible to vasp.4.4-vasp.4.6
   LMAXPAW     = -100 max onsite density
   LMAXMIX     =    2 max onsite mixed and CHGCAR
   VOSKOWN=      0    Vosko Wilk Nusair interpolation
   ROPT   =    0.00000   0.00000   0.00000   0.00000
 Ionic relaxation
   EDIFFG = 0.1E-02   stopping-criterion for IOM
   NSW    =      0    number of steps for IOM
   NBLOCK =      1;   KBLOCK =      1    inner block; outer block
   IBRION =     -1    ionic relax: 0-MD 1-quasi-New 2-CG
   NFREE  =      0    steps in history (QN), initial steepest desc. (CG)
   ISIF   =      2    stress and relaxation
   IWAVPR =     10    prediction:  0-non 1-charg 2-wave 3-comb
   ISYM   =      2    0-nonsym 1-usesym 2-fastsym
   LCORR  =      T    Harris-Foulkes like correction to forces

   POTIM  = 0.5000    time-step for ionic-motion
   TEIN   =    0.0    initial temperature
   TEBEG  =    0.0;   TEEND  =   0.0 temperature during run
   SMASS  =  -3.00    Nose mass-parameter (am)
   estimated Nose-frequenzy (Omega)   =  0.10E-29 period in steps = 0.13E+47 mass=  -0.402E-27a.u.
   SCALEE = 1.0000    scale energy and forces
   NPACO  =    256;   APACO  = 10.0  distance and # of slots for P.C.
   PSTRESS=    0.0 pullay stress

  Mass of Ions in am
   POMASS = 137.33 91.22 16.00  1.00
  Ionic Valenz
   ZVAL   =  10.00 12.00  6.00  1.00
  Atomic Wigner-Seitz radii
  virtual crystal weights
   VCA    =   1.00  1.00  1.00  1.00
   NELECT =      41.0000    total number of electrons
   NUPDOWN=      -1.0000    fix difference up-down

 DOS related values:
   EMIN   =  10.00;   EMAX   =-10.00  energy-range for DOS
   EFERMI =   0.00;   METHOD = LEGACY
   ISMEAR =     1;   SIGMA  =   0.20  broadening in eV -4-tet -1-fermi 0-gaus

 Electronic relaxation 2 (details)
   IALGO  =     38    algorithm
   LDIAG  =      T    sub-space diagonalisation (order eigenvalues)
   LSUBROT=      F    optimize rotation matrix (better conditioning)
   TURBO    =      0    0=normal 1=particle mesh
   IRESTART =      0    0=no restart 2=restart with 2 vectors
   NREBOOT  =      0    no. of reboots
   NMIN     =      0    reboot dimension
   EREF     =   0.00    reference energy to select bands
   IMIX   =      4    mixing-type and parameters
     AMIX     =   0.40;   BMIX     =  1.00
     AMIX_MAG =   1.60;   BMIX_MAG =  1.00
     AMIN     =   0.10
     WC   =   100.;   INIMIX=   1;  MIXPRE=   1;  MAXMIX= -45

 Intra band minimization:
   WEIMIN = 0.0000     energy-eigenvalue tresh-hold
   EBREAK =  0.63E-06  absolut break condition
   DEPER  =   0.30     relativ break condition

   TIME   =   0.40     timestep for ELM

  volume/ion in A,a.u.               =      12.28        82.85
  Fermi-wavevector in a.u.,A,eV,Ry     =   1.346630  2.544761 24.672961  1.813411
  Thomas-Fermi vector in A             =   2.474446

 Write flags
   LWAVE        =      T    write WAVECAR
   LDOWNSAMPLE  =      F    k-point downsampling of WAVECAR
   LCHARG       =      T    write CHGCAR
   LVTOT        =      F    write LOCPOT, total local potential
   LVHAR        =      F    write LOCPOT, Hartree potential only
   WRT_POTENTIAL= false  ! write potential to hdf5 file
   LELF         =      F    write electronic localiz. function (ELF)
   LORBIT       =      0    0 simple, 1 ext, 2 COOP (PROOUT), +10 PAW based schemes

 Dipole corrections
   LMONO      =      F    monopole corrections only (constant potential shift)
   LDIPOL     =      F    correct potential (dipole corrections)
   IDIPOL     =      0    1-x, 2-y, 3-z, 4-all directions
   EPSILON    =  1.0000000 bulk dielectric constant
   LVACPOTAV  =      F  vacuum potentials using an averaging scheme for the charge density
   VACPOTFLAT =  0.1000000 required flatness to determine vacuum potential
 Exchange correlation treatment:
   GGA     = PE    functional components
   XC_C    = 1    coefficients multiplying the functional components
   VOSKOWN =     0    Vosko Wilk Nusair interpolation
   LHFCALC =     F    Hartree Fock is set to
   LHFONE  =     F    Hartree Fock one center treatment
   AEXX    =    0.0000 exact exchange contribution

 Parameters of functionals:
   PE:
     No parameter

 Van der Waals corrections
   IVDW    =     0    specifies the selected vdW correction

 Linear response parameters
   LEPSILON=     F    determine dielectric tensor
   LRPA    =     F    only Hartree local field effects (RPA)
   LNABLA  =     F    use nabla operator in PAW spheres
   LVEL    =     F    velocity operator in full k-point grid
   CSHIFT  =0.1000    complex shift for real part using Kramers Kronig
   OMEGAMAX=  -1.0    maximum frequency
   DEG_THRESHOLD= 0.2000000E-02 threshold for treating states as degnerate
   RTIME   =   -0.100 relaxation time in fs
  (WPLASMAI=    0.000 imaginary part of plasma frequency in eV, 0.658/RTIME)
   DFIELD  = 0.0000000 0.0000000 0.0000000 field for delta impulse in time

  Optional k-point grid parameters
   LKPOINTS_OPT  =     F    use optional k-point grid
   KPOINTS_OPT_MODE=     1    mode for optional k-point grid

 Orbital magnetization related:
   ORBITALMAG=     F  switch on orbital magnetization
   LCHIMAG   =     F  perturbation theory with respect to B field
   DQ        =  0.001000  dq finite difference perturbation B field
   LLRAUG    =     F  two centre corrections for induced B field
   LBONE     =     F  B-component reconstruction in AE one-centre
   LVGVCALC  =     T  calculate vGv susceptibility
   LVGVAPPL  =     F  apply vGv susceptibility instead of pGv for G=0

 Random number generation:
   RANDOM_GENERATOR = DEFAULT
   PCG_SEED         = not used

 Static calculation
 charge density and potential will be updated during run
 non-spin polarized calculation
 Variant of blocked Davidson
 Davidson routine will perform the subspace rotation
 perform sub-space diagonalisation
    after iterative eigenvector-optimisation
 modified Broyden-mixing scheme, WC =      100.0
 initial mixing is a Kerker type mixing with AMIX =  0.4000 and BMIX =      1.0000
 Hartree-type preconditioning will be used
 using additional bands           19
 reciprocal scheme for non local part
 use partial core corrections
 calculate Harris-corrections to forces
   (improved forces if not selfconsistent)
 use gradient corrections
 use of overlap-Matrix (Vanderbilt PP)
 Methfessel and Paxton  Order N= 1 SIGMA  =   0.20

  energy-cutoff  :      400.00
  volume of cell :       73.67
      direct lattice vectors                 reciprocal lattice vectors
     4.192000000  0.000000000  0.000000000     0.238549618  0.000000000  0.000000000
     0.000000000  4.192000000  0.000000000     0.000000000  0.238549618  0.000000000
     0.000000000  0.000000000  4.192000000     0.000000000  0.000000000  0.238549618

[...]

 k-points in units of 2pi/SCALE and weight: KPOINTS created by Atomic Simulation Env
   0.00000000  0.00000000  0.00000000       1.000

 k-points in reciprocal lattice and weights: KPOINTS created by Atomic Simulation Env
   0.00000000  0.00000000  0.00000000       1.000

 position of ions in fractional coordinates (direct lattice)
   0.00000000  0.00000000  0.00000000
   0.50000000  0.50000000  0.50000000
   0.50000000  0.00000000  0.50000000
   0.00000000  0.50000000  0.50000000
   0.50000000  0.50000000  0.00000000
   0.50000000  0.50000000  0.22900763

 position of ions in cartesian coordinates  (Angst):
   0.00000000  0.00000000  0.00000000
   2.09600000  2.09600000  2.09600000
   2.09600000  0.00000000  2.09600000
   0.00000000  2.09600000  2.09600000
   2.09600000  2.09600000  0.00000000
   2.09600000  2.09600000  0.96000000

 k-point     1 :   0.0000 0.0000 0.0000  plane waves:    1357

 maximum and minimum number of plane-waves per node :      1357     1357

 maximum number of plane-waves:      1357
 maximum index in each direction:
   IXMAX=    6   IYMAX=    6   IZMAX=    6
   IXMIN=   -6   IYMIN=   -6   IZMIN=   -6

 serial   3D FFT for wavefunctions
 parallel 3D FFT for charge:
    minimum data exchange during FFTs selected (reduces bandwidth)

 Broyden mixing: mesh for mixing (old mesh)
   NGX = 13   NGY = 13   NGZ = 13
  (NGX  = 48   NGY  = 48   NGZ  = 48)
  gives a total of   2197 points

 initial charge density was supplied:
 charge density of overlapping atoms calculated
 number of electron      41.0000000 magnetization
 keeping initial charge density in first step

 Maximum index for augmentation-charges         1030 (set IRDMAX)

 First call to EWALD:  gamma=   0.423
 Maximum number of real-space cells 3x 3x 3
 Maximum number of reciprocal cells 3x 3x 3

--------------------------------------- Ionic step        1  -------------------------------------------

--------------------------------------- Iteration      1(   1)  ---------------------------------------

 eigenvalue-minimisations  :    80
 total energy-change (2. order) : 0.1282273E+03  (-0.2237867E+04)
 number of electron      41.0000000 magnetization
 augmentation part       41.0000000 magnetization

 Free energy of the ion-electron system (eV)
  alpha Z        PSCENC =       247.70705689
  Ewald energy   TEWEN  =     -2661.32637194
  -Hartree energ DENC   =      -715.25075161
  -exchange      EXHF   =         0.00000000
  -V(xc)+E(xc)   XCENC  =       163.93071392
  PAW double counting   =      2563.18628374    -2546.99615649
  entropy T*S    EENTRO =        -0.05484728
  eigenvalues    EBANDS =      -217.30586550
  atomic energy  EATOM  =      3294.33724724
  Solvation  Ediel_sol  =         0.00000000
  free energy    TOTEN  =       128.22730897 eV

  energy without entropy =      128.28215624  energy(sigma->0) =      128.24559139

[...]

 eigenvalue-minimisations  :   120
 total energy-change (2. order) :-0.1577907E+03  (-0.1577647E+03)
 number of electron      41.0000000 magnetization
 augmentation part       41.0000000 magnetization

[...]

 Broyden mixing:
  rms(total) = 0.25646E+01    rms(broyden)= 0.25634E+01
  rms(prec ) = 0.48219E+01
  weight for this iteration     100.00

[...]

 eigenvalues of (default mixing * dielectric matrix)
  average eigenvalue GAMMA=   1.0877
  1.0877

[...]

 eigenvalue-minimisations  :   160
 total energy-change (2. order) :-0.6386278E-02  (-0.1655220E-01)
 number of electron      41.0000113 magnetization
 augmentation part        1.2495186 magnetization

[...]

 Broyden mixing:
  rms(total) = 0.10657E-01    rms(broyden)= 0.10420E-01
  rms(prec ) = 0.26775E-01
  weight for this iteration     100.00

 eigenvalues of (default mixing * dielectric matrix)
  average eigenvalue GAMMA=   1.4421
  2.8552  2.2951  1.6519  1.6519  1.0169  0.9145  0.9145  0.2367

[...]

--------------------------------------- Iteration      1(  14)  ---------------------------------------

 eigenvalue-minimisations  :    80
 total energy-change (2. order) : 0.5136218E-04  (-0.8883063E-04)
 number of electron      41.0000116 magnetization
 augmentation part        1.2682260 magnetization

 Free energy of the ion-electron system (eV)
  alpha Z        PSCENC =       247.70705689
  Ewald energy   TEWEN  =     -2661.32637194
  -Hartree energ DENC   =      -762.15638764
  -exchange      EXHF   =         0.00000000
  -V(xc)+E(xc)   XCENC  =       167.84396413
  PAW double counting   =      4001.39406199    -3993.22638953
  entropy T*S    EENTRO =        -0.02518588
  eigenvalues    EBANDS =      -313.01575882
  atomic energy  EATOM  =      3294.33724724
  Solvation  Ediel_sol  =         0.00000000
  free energy    TOTEN  =       -18.46776356 eV

  energy without entropy =      -18.44257768  energy(sigma->0) =      -18.45936827

 average (electrostatic) potential at core
  the test charge radii are     1.2192  1.0638  0.7215  0.5201
  (the norm of the test charge is              1.0000)
       1 -33.3069       2 -79.3368       3 -66.1820       4 -66.1820       5 -70.1203
       6 -47.0021

 E-fermi :   5.7490     XC(G=0): -10.7100     alpha+bet :-14.2558

 val. band max:        5.5258785534   @ k =   0.0000   0.0000   0.0000
 cond. band min:       5.8208157906   @ k =   0.0000   0.0000   0.0000
 fundamental gap:      0.2949372372
 Fermi energy:         5.7489750987

 k-point     1 :       0.0000    0.0000    0.0000
  band No.  band energies     occupation
      1     -44.8858      2.00000
      2     -25.1020      2.00000
      3     -22.3083      2.00000
      4     -22.3083      2.00000
      5     -21.3627      2.00000
      6     -15.1273      2.00000
      7     -10.4232      2.00000
      8     -10.1489      2.00000
      9      -6.5713      2.00000
     10      -6.5713      2.00000
     11      -6.3533      2.00000
     12      -0.8486      2.00000
     13       1.7452      2.00000
     14       1.7452      2.00000
     15       4.3949      2.00000
     16       4.3949      2.00000
     17       4.5409      2.00000
     18       4.7393      2.00000
     19       5.5259      2.06667
     20       5.5259      2.06667
     21       5.8208      0.43333
     22       5.8208      0.43333
     23       6.7602     -0.00000
     24       7.0209     -0.00000
     25       8.7249     -0.00000
     26       8.9007     -0.00000
     27      10.3237      0.00000
     28      10.9509      0.00000
     29      12.1453      0.00000
     30      12.3210      0.00000
     31      12.3210      0.00000
     32      18.8043      0.00000
     33      19.5467      0.00000
     34      19.5645      0.00000
     35      19.5645      0.00000
     36      21.3392      0.00000
     37      23.4817      0.00000
     38      23.4817      0.00000
     39      23.6197      0.00000
     40      24.6387      0.00000

 soft charge-density along one line, spin component           1
         0         1         2         3         4         5         6         7         8         9
 total charge-density along one line

------------------------ aborting loop because EDIFF is reached ----------------------------------------

  FORCE on cell =-STRESS in cart. coord.  units (eV):
  Direction    XX          YY          ZZ          XY          YZ          ZX
  Alpha Z   247.70706   247.70706   247.70706
  Ewald    -963.74109  -963.74109  -733.84665     0.00000    -0.00000     0.00000
  Hartree   238.93357   238.93357   284.35434    -0.00000    -0.00000    -0.00000
  E(xc)    -182.66468  -182.66468  -181.90672    -0.00000     0.00000    -0.00000
  Local     -24.37229   -24.37229  -239.43745    -0.00000     0.00000    -0.00000
  n-local  -110.61767  -110.61766  -112.74544    -0.00000    -0.00000    -0.00000
  augment    22.88217    22.88217    21.54535     0.00000     0.00000     0.00000
  Kinetic   790.04641   790.04632   770.92420    -0.00001     0.00000     0.00000
  Fock        0.00000     0.00000     0.00000     0.00000     0.00000     0.00000
  Total      18.17343    18.17343    56.59468     0.00000     0.00000     0.00000
  in kB     395.26065   395.26065  1230.89896     0.00000     0.00000     0.00000

 VOLUME and BASIS-vectors are now :
  energy-cutoff  :      400.00
  volume of cell :       73.67
      direct lattice vectors                 reciprocal lattice vectors
     4.192000000  0.000000000  0.000000000     0.238549618  0.000000000  0.000000000
     0.000000000  4.192000000  0.000000000     0.000000000  0.238549618  0.000000000
     0.000000000  0.000000000  4.192000000     0.000000000  0.000000000  0.238549618

  length of vectors
     4.192000000  4.192000000  4.192000000     0.238549618  0.238549618  0.238549618

 FORCES acting on ions
    electron-ion (+dipol)            ewald-force                    non-local-force                 convergence-correction
   -.617E-14 -.372E-14 0.541E+01   0.844E-14 -.420E-14 -.562E+01   -.110E-22 -.142E-22 0.632E-01   0.420E-14 -.106E-14 -.982E-02
   0.179E-12 -.214E-11 -.985E+02   -.161E-13 0.161E-13 0.120E+03   0.150E-22 -.131E-22 -.329E+01   -.209E-13 0.173E-13 -.234E-01
   0.186E-12 -.371E-13 -.147E+01   -.381E-15 -.187E-13 0.730E+01   -.308E-22 0.292E-22 -.320E+01   -.200E-13 -.793E-14 0.145E-01
   -.361E-14 0.189E-12 -.147E+01   0.857E-14 0.106E-14 0.730E+01   0.379E-22 0.519E-22 -.320E+01   -.469E-15 0.133E-13 0.145E-01
   0.188E-12 -.176E-11 0.542E+02   -.411E-15 0.324E-14 -.883E+02   -.266E-22 -.336E-23 0.425E+02   -.759E-15 0.989E-14 -.672E-02
   0.181E-13 -.233E-12 0.126E+02   0.186E-15 0.187E-14 -.409E+02   0.157E-22 -.458E-23 -.368E+01   0.805E-15 -.146E-14 0.115E-01
   0.561E-12 -.398E-11 -.292E+02   0.318E-15 -.637E-15 0.142E-13   0.189E-24 0.459E-22 0.292E+02   -.371E-13 0.300E-13 0.662E-03

 POSITION                                       TOTAL-FORCE (eV/Angst)
      0.00000      0.00000      0.00000        -0.000000     -0.000000     -0.152421
      2.09600      2.09600      2.09600         0.000000      0.000000     18.422845
      2.09600      0.00000      2.09600        -0.000000     -0.000000      2.646465
      0.00000      2.09600      2.09600        -0.000000     -0.000000      2.646465
      2.09600      2.09600      0.00000        -0.000000     -0.000000      8.422922
      2.09600      2.09600      0.96000        -0.000000     -0.000000    -31.986276
    total drift:                                0.000000     -0.000000     -0.014142

  FREE ENERGIE OF THE ION-ELECTRON SYSTEM (eV)
  free  energy   TOTEN  =       -18.46776356 eV

  energy  without entropy=      -18.44257768  energy(sigma->0) =      -18.45936827

 stress matrix after NEB project (eV)
     18.17343      0.00000      0.00000
      0.00000     18.17343      0.00000
      0.00000      0.00000     56.59468
  FORCES: max atom, RMS    31.986276   15.532222
  FORCE total and by dimension   38.046018   31.986276
  Stress total and by dimension   62.157101   56.594685
 writing wavefunctions