 vasp.6.4.3 19Mar24 (build Jul 09 2024 15:45:28) complex

 executed on             LinuxIFC date 2024.10.29  12:19:51

 INCAR:
   ENCUT = 400.000000
   POTIM = 0.150000
   EDIFF = 1.00e-04
   EDIFFG = -1.00e-01
   ALGO = Normal
   GGA = PE
   PREC = Normal
   IBRION = 2
   IDIPOL = 3
   ISMEAR = 0
   ISPIN = 2
   LMAXMIX = 6
   LORBIT = 10
   NELM = 30
   NELMIN = 5
   NPAR = 10
   NSIM = 10
   NSW = 5
   KGAMMA = .TRUE.
   LASPH = .TRUE.
   LCHARG = .FALSE.
   LDIPOL = .TRUE.
   LWAVE = .FALSE.
   LREAL = .TRUE.
   MAGMOM = 8*1.0000 26*0.0000 1*2.0000

 POTCAR:    PAW_PBE Cr_pv 02Aug2007
 POTCAR:    PAW_PBE La 06Sep2000
 POTCAR:    PAW_PBE O 08Apr2002
 POTCAR:    PAW_PBE Cr_pv 02Aug2007
   VRHFIN =Cr : p6d5s1

   TITEL  = PAW_PBE Cr_pv 02Aug2007
   POMASS =   51.996; ZVAL   =   12.000    mass and valenz
   ENMAX  =  265.681; ENMIN  =  199.261 eV

   TITEL  = PAW_PBE La 06Sep2000
   POMASS =  138.900; ZVAL   =   11.000    mass and valenz
   ENMAX  =  219.292; ENMIN  =  164.469 eV

   TITEL  = PAW_PBE O 08Apr2002
   POMASS =   16.000; ZVAL   =    6.000    mass and valenz
   ENMAX  =  400.000; ENMIN  =  300.000 eV

  PAW_PBE Cr_pv 02Aug2007               :
  PAW_PBE La 06Sep2000                  :
  PAW_PBE O 08Apr2002                   :

 POSCAR: Cr La O
  positions in cartesian coordinates

 exchange-correlation table for PE
   RHO(1)=    0.500       N(1)  =     2000
   RHO(2)=  100.500       N(2)  =     4000

 VTST: version 4.1, (05/19/21)

 CHAIN: initializing optimizer

 OPT: Using VASP Conjugate-Gradient optimizer
 CHAIN: Read ICHAIN            0

 POSCAR: Cr La O
  positions in cartesian coordinates

 ion  position               nearest neighbor table
   1  0.000  0.500  0.003-  16 1.91  18 1.97  15 2.18  10 3.23   9 3.35   9 3.42
   2  0.500  0.000  0.003-  15 1.91  17 1.97  16 2.18   9 3.23  10 3.35  10 3.42
   3  0.500  0.000  0.136-  20 1.91  21 1.91  17 1.97  23 1.97  22 2.18  19 2.18   9 3.23  11 3.23
                            10 3.35  12 3.35  12 3.42  10 3.42
   4  0.000  0.500  0.136-  19 1.91  22 1.91  18 1.97  24 1.97  20 2.18  21 2.18  10 3.23  12 3.23
                            11 3.35   9 3.35   9 3.42  11 3.42
   5  1.000  0.499  0.269-  30 1.90  28 1.97  25 2.00  24 2.01  27 2.13  26 2.13  14 3.25  12 3.26
                            13 3.34  11 3.37
   6  0.500  0.999  0.269-  29 1.90  27 1.97  26 2.00  23 2.01  28 2.13  25 2.13  13 3.25  11 3.26
                            14 3.34  12 3.37
   7  0.489  0.003  0.400-  33 1.89  29 1.97  32 2.02  34 2.12  31 2.16  13 3.23  14 3.34  14 3.35

   8  0.011  0.503  0.400-  34 1.89  30 1.97  31 2.02  35 2.04  33 2.12  32 2.16  14 3.23  13 3.34
                            13 3.35
   9  0.508  0.549  0.070-  18 2.43  16 2.46  19 2.46  17 2.56  15 2.65  20 2.65  22 2.70   3 3.23
                             2 3.23   4 3.35   1 3.35   4 3.42   1 3.42
  10  0.992  0.049  0.070-  17 2.43  15 2.46  20 2.46  18 2.56  19 2.65  16 2.65  21 2.70   4 3.23
                             1 3.23   3 3.35   2 3.35   3 3.42   2 3.42
  11  0.492  0.451  0.202-  25 2.40  24 2.43  22 2.46  23 2.56  28 2.64  21 2.65  26 2.66  19 2.70
                             3 3.23   6 3.26   4 3.35   5 3.37   4 3.42
  12  0.008  0.951  0.202-  26 2.40  23 2.43  21 2.46  24 2.56  27 2.64  22 2.65  25 2.66  20 2.70
                             4 3.23   5 3.26   3 3.35   6 3.37   3 3.42
  13  0.510  0.544  0.336-  31 2.36  28 2.43  30 2.45  34 2.59  32 2.59  29 2.68  27 2.76  25 2.76
                             7 3.23   6 3.25   5 3.34   8 3.34   8 3.35
  14  0.990  0.044  0.336-  32 2.36  27 2.43  29 2.45  33 2.59  31 2.59  30 2.68  28 2.76  26 2.76
                             8 3.23   5 3.25   6 3.34   7 3.34   7 3.35
  15  0.774  0.807  0.014-   2 1.91   1 2.18  10 2.46   9 2.65
  16  0.726  0.307  0.014-   1 1.91   2 2.18   9 2.46  10 2.65
  17  0.425  0.987  0.070-   3 1.97   2 1.97  10 2.43   9 2.56
  18  0.075  0.487  0.070-   4 1.97   1 1.97   9 2.43  10 2.56
  19  0.726  0.307  0.126-   4 1.91   3 2.18   9 2.46  10 2.65  11 2.70
  20  0.774  0.807  0.126-   3 1.91   4 2.18  10 2.46   9 2.65  12 2.70
  21  0.226  0.193  0.146-   3 1.91   4 2.18  12 2.46  11 2.65  10 2.70
  22  0.274  0.693  0.146-   4 1.91   3 2.18  11 2.46  12 2.65   9 2.70
  23  0.575  0.013  0.202-   3 1.97   6 2.01  12 2.43  11 2.56
  24  0.925  0.513  0.202-   4 1.97   5 2.01  11 2.43  12 2.56
  25  0.289  0.696  0.256-   5 2.00   6 2.13  11 2.40  12 2.66  13 2.76
  26  0.211  0.196  0.256-   6 2.00   5 2.13  12 2.40  11 2.66  14 2.76
  27  0.792  0.808  0.278-   6 1.97   5 2.13  14 2.43  12 2.64  13 2.76
  28  0.708  0.308  0.278-   5 1.97   6 2.13  13 2.43  11 2.64  14 2.76
  29  0.430  0.004  0.333-   6 1.90   7 1.97  14 2.45  13 2.68
  30  0.070  0.504  0.333-   5 1.90   8 1.97  13 2.45  14 2.68
  31  0.719  0.301  0.388-   8 2.02   7 2.16  13 2.36  14 2.59
  32  0.781  0.801  0.388-   7 2.02   8 2.16  14 2.36  13 2.59
  33  0.213  0.192  0.408-   7 1.89   8 2.12  14 2.59
  34  0.287  0.692  0.408-   8 1.89   7 2.12  13 2.59
  35  0.000  0.500  0.470-   8 2.04

  LATTYP: Found a simple orthorhombic cell.
 ALAT       =     5.5367000000
 B/A-ratio  =     1.0380370979
 C/A-ratio  =     5.2541031011

  Lattice vectors:

 A1 = (   5.5367000000,   0.0000000000,   0.0000000000)
 A2 = (   0.0000000000,   5.7473000000,   0.0000000000)
 A3 = (   0.0000000000,   0.0000000000,  29.0903926400)

Analysis of symmetry for initial positions (statically):
 Subroutine PRICEL returns:
 Original cell was already a primitive cell.

 Routine SETGRP: Setting up the symmetry group for a
 simple orthorhombic supercell.

 Subroutine GETGRP returns: Found  1 space group operations
 (whereof  1 operations were pure point group operations)
 out of a pool of  8 trial point group operations.

The static configuration has the point symmetry C_1 .

Analysis of symmetry for dynamics (positions and initial velocities):
 Subroutine PRICEL returns:
 Original cell was already a primitive cell.

[...]

The dynamic configuration has the point symmetry C_1 .

Analysis of constrained symmetry for selective dynamics:
 Subroutine PRICEL returns:
 Original cell was already a primitive cell.

[...]

The constrained configuration has the point symmetry C_1 .

Analysis of structural, dynamic, and magnetic symmetry:
 Subroutine PRICEL returns:
 Original cell was already a primitive cell.

 Routine SETGRP: Setting up the symmetry group for a
 simple orthorhombic supercell.

 Subroutine GETGRP returns: Found  1 space group operations
 (whereof  1 operations were pure point group operations)
 out of a pool of  8 trial point group operations.

The overall configuration has the point symmetry C_1 .

 Subroutine INISYM returns: Found  1 space group operations
 (whereof  1 operations are pure point group operations),
 and found     1 'primitive' translations

                                     Primitive cell

  volume of cell :     925.6876

  direct lattice vectors                    reciprocal lattice vectors
     5.536700000  0.000000000  0.000000000     0.180613001  0.000000000  0.000000000
     0.000000000  5.747300000  0.000000000     0.000000000  0.173994745  0.000000000
     0.000000000  0.000000000 29.090392640     0.000000000  0.000000000  0.034375610

  length of vectors
     5.536700000  5.747300000 29.090392640     0.180613001  0.173994745  0.034375610

  position of ions in fractional coordinates (direct lattice)
     0.000000000  0.500000000  0.003437561
     0.500000000  0.000000000  0.003437561
     0.500000000  0.000000000  0.135661627
     0.000000000  0.500000000  0.135661627
     0.999869288  0.499384381  0.269371256
     0.500130712  0.999384381  0.269371256
     0.489395868  0.003155030  0.400064527
     0.010604132  0.503155030  0.400064527
     0.507800000  0.549000000  0.069549594
     0.992200000  0.049000000  0.069549594
     0.492200000  0.451000000  0.201773660
     0.007800000  0.951000000  0.201773660
     0.509573887  0.544166459  0.335817371
     0.990426113  0.044166459  0.335817371
     0.774400000  0.806600000  0.013592369
     0.725600000  0.306600000  0.013592369
     0.425500000  0.987400000  0.069549594
     0.074500000  0.487400000  0.069549594
     0.725600000  0.306600000  0.125506819
     0.774400000  0.806600000  0.125506819
     0.225600000  0.193400000  0.145816435
     0.274400000  0.693400000  0.145816435
     0.574500000  0.012600000  0.201773660
     0.925500000  0.512600000  0.201773660
     0.288705330  0.696341168  0.256143619
     0.211294670  0.196341168  0.256143619
     0.792048047  0.807818652  0.277526194
     0.707951953  0.307818652  0.277526194
     0.429843379  0.003571190  0.333245042
     0.070156621  0.503571190  0.333245042
     0.719086704  0.301287230  0.387742702
     0.780913296  0.801287230  0.387742702
     0.213394579  0.192287266  0.408348745
     0.286605421  0.692287266  0.408348745
     0.000000000  0.500000000  0.470224844

  ion indices of the primitive-cell ions
   primitive index   ion index
                 1           1
                 2           2
                 3           3
                 4           4
                 5           5
                 6           6
                 7           7
                 8           8
                 9           9
                10          10
                11          11
                12          12
                13          13
                14          14
                15          15
                16          16
                17          17
                18          18
                19          19
                20          20
                21          21
                22          22
                23          23
                24          24
                25          25
                26          26
                27          27
                28          28
                29          29
                30          30
                31          31
                32          32
                33          33
                34          34
                35          35

 KPOINTS: KPOINTS created by Atomic Simulation Env

Automatic generation of k-mesh.
 Grid dimensions read from file:
 generate k-points for:    1    1    1

 Generating k-lattice:

  Cartesian coordinates                     Fractional coordinates (reciprocal lattice)
     0.180613001  0.000000000  0.000000000     1.000000000  0.000000000  0.000000000
     0.000000000  0.173994745  0.000000000     0.000000000  1.000000000  0.000000000
     0.000000000  0.000000000  0.034375610     0.000000000  0.000000000  1.000000000

  Length of vectors
     0.180613001  0.173994745  0.034375610

  Shift w.r.t. Gamma in fractional coordinates (k-lattice)
     0.000000000  0.000000000  0.000000000

 Subroutine IBZKPT returns following result:

 Found      1 irreducible k-points:

 Following reciprocal coordinates:
            Coordinates               Weight
  0.000000  0.000000  0.000000      1.000000

 Following cartesian coordinates:
            Coordinates               Weight
  0.000000  0.000000  0.000000      1.000000

 SYSTEM =  unknown system
 POSCAR =  Cr La O

 Startparameter for this run:
[...]
     29     -30.5116      1.00000
     30     -30.3966      1.00000
     31     -18.6778      1.00000
     32     -18.3355      1.00000
     33     -18.2651      1.00000
     34     -18.2081      1.00000
     35     -18.0283      1.00000
     36     -17.9493      1.00000
     37     -17.9170      1.00000
     38     -17.8172      1.00000
     39     -17.7177      1.00000
     40     -17.6607      1.00000
     41     -17.4840      1.00000
     42     -17.4504      1.00000
     43     -17.3551      1.00000
     44     -17.3201      1.00000
     45     -17.2312      1.00000
     46     -17.1575      1.00000
     47     -16.9529      1.00000
     48     -16.6439      1.00000
     49     -16.5155      1.00000
     50     -16.4690      1.00000
     51     -15.9198      1.00000
     52     -14.9971      1.00000
     53     -14.9731      1.00000
     54     -14.8605      1.00000
     55     -14.7930      1.00000
     56     -14.7136      1.00000
     57     -14.6419      1.00000
     58     -14.4710      1.00000
     59     -14.4302      1.00000
     60     -14.3680      1.00000
[...]
    166       2.7081      0.00000
    167       2.8815      0.00000
    168       3.0124      0.00000
    169       3.3507      0.00000
    170       3.5424      0.00000
    171       3.5979      0.00000
    172       3.6476      0.00000
    173       3.6895      0.00000
    174       3.7082      0.00000
    175       3.7682      0.00000
    176       3.7897      0.00000
    177       3.8160      0.00000
    178       3.8594      0.00000
    179       3.8939      0.00000
    180       3.9026      0.00000
 Fermi energy:         1.0304290824

 spin component 2

 k-point     1 :       0.0000    0.0000    0.0000
  band No.  band energies     occupation
      1     -43.6894      1.00000
      2     -43.6340      1.00000
      3     -43.5418      1.00000
      4     -43.3912      1.00000
      5     -43.0405      1.00000
      6     -42.9330      1.00000
      7     -42.6879      1.00000
      8     -42.4426      1.00000
      9     -41.8782      1.00000
     10     -41.5511      1.00000
     11     -41.4913      1.00000
     12     -41.2381      1.00000
     13     -41.2196      1.00000
     14     -41.1964      1.00000
     15     -41.0867      1.00000
     16     -41.0610      1.00000
     17     -41.0453      1.00000
     18     -40.9273      1.00000
     19     -40.9244      1.00000
     20     -40.7347      1.00000
     21     -40.6393      1.00000
     22     -40.0903      1.00000
     23     -40.0691      1.00000
     24     -39.7450      1.00000
     25     -31.2753      1.00000
     26     -31.1705      1.00000
     27     -31.0893      1.00000
     28     -30.9803      1.00000
     29     -30.5163      1.00000
     30     -30.4013      1.00000
     31     -18.6963      1.00000
     32     -18.3420      1.00000
     33     -18.2624      1.00000
     34     -18.1884      1.00000
     35     -18.0231      1.00000
     36     -17.9492      1.00000
     37     -17.9192      1.00000
     38     -17.8075      1.00000
     39     -17.7242      1.00000
     40     -17.6433      1.00000
     41     -17.4734      1.00000
     42     -17.4551      1.00000
     43     -17.3304      1.00000
     44     -17.2988      1.00000
     45     -17.2222      1.00000
     46     -17.1552      1.00000
     47     -16.9273      1.00000
     48     -16.6400      1.00000
     49     -16.5221      1.00000
     50     -16.4702      1.00000
     51     -15.0213      1.00000
     52     -15.0206      1.00000
     53     -14.9991      1.00000
     54     -14.8840      1.00000
     55     -14.8158      1.00000
     56     -14.7388      1.00000
     57     -14.6641      1.00000
     58     -14.4913      1.00000
     59     -14.4503      1.00000
     60     -14.3848      1.00000
[...]
    166       3.3999      0.00000
    167       3.5233      0.00000
    168       3.5824      0.00000
    169       3.6493      0.00000
    170       3.6549      0.00000
    171       3.6845      0.00000
    172       3.7053      0.00000
    173       3.7436      0.00000
    174       3.7844      0.00000
    175       3.7977      0.00000
    176       3.8187      0.00000
    177       3.8524      0.00000
    178       3.8805      0.00000
    179       3.8904      0.00000
    180       3.9187      0.00000

[...]

 soft charge-density along one line, spin component           2
         0         1         2         3         4         5         6         7         8         9
 total charge-density along one line

------------------------ aborting loop EDIFF was not reached (unconverged)  ----------------------------

[...]

  FORCE on cell =-STRESS in cart. coord.  units (eV):
  Direction    XX          YY          ZZ          XY          YZ          ZX
  Alpha Z   594.72923   594.72923   594.72923
  Ewald  154125.25101153613.23914************     7.54489    33.36627   -75.35125
  Hartree160819.42347160672.76756************    11.17294    14.13822   -54.75928
  E(xc)   -1391.71028 -1393.45828 -1392.74211    -0.03434     0.13156    -0.11319
  Local  ************************318544.24158   -25.16539   -47.62819   129.88932
  n-local   160.83959   150.90131   151.40879    -0.74286     0.54076    -2.18673
  augment   616.50933   618.47939   609.28400     3.06417     0.60310     0.06922
  Kinetic  4983.88157  4978.40052  4936.43883     5.73949     3.11045    -0.62168
  Fock        0.00000     0.00000     0.00000     0.00000     0.00000     0.00000
  Total      12.99552    -5.04866   -29.67303     1.57889     4.26217    -3.07360
  in kB      22.49261    -8.73820   -51.35800     2.73275     7.37695    -5.31977

 VOLUME and BASIS-vectors are now :
  energy-cutoff  :      400.00
  volume of cell :      925.69
      direct lattice vectors                 reciprocal lattice vectors
     5.536700000  0.000000000  0.000000000     0.180613001  0.000000000  0.000000000
     0.000000000  5.747300000  0.000000000     0.000000000  0.173994745  0.000000000
     0.000000000  0.000000000 29.090392640     0.000000000  0.000000000  0.034375610

  length of vectors
     5.536700000  5.747300000 29.090392640     0.180613001  0.173994745  0.034375610

 FORCES acting on ions
    electron-ion (+dipol)            ewald-force                    non-local-force                 convergence-correction
   -.247E+03 -.375E+02 0.453E+04   0.244E+03 0.366E+02 -.452E+04   0.218E+01 0.237E+01 -.843E+01   -.664E-01 -.146E+00 0.662E+00
   0.247E+03 -.375E+02 0.453E+04   -.244E+03 0.366E+02 -.452E+04   -.262E+01 0.217E+01 -.912E+01   0.736E-01 -.275E-01 0.720E+00
   0.779E+01 0.136E+00 0.183E+04   -.772E+01 -.184E+00 -.182E+04   0.238E+00 0.168E+00 -.227E+00   -.528E-01 -.112E-01 -.477E+01
   -.778E+01 0.229E+00 0.183E+04   0.767E+01 -.129E+00 -.182E+04   0.874E-01 -.131E+00 -.759E+00   0.129E-02 -.357E-01 -.447E+01
   -.234E+01 -.123E+01 -.116E+04   0.325E+01 0.589E+00 0.116E+04   -.245E+00 0.745E-01 -.903E+00   0.124E-01 0.322E-01 -.322E+01
   0.720E+01 0.103E-01 -.115E+04   -.763E+01 -.450E+00 0.115E+04   -.360E-01 0.801E-01 -.117E+00   -.321E-01 -.129E-01 -.331E+01
   -.122E+03 0.511E+02 -.416E+04   0.121E+03 -.466E+02 0.416E+04   0.237E+01 -.411E+01 0.402E+01   0.225E+00 0.170E+00 0.125E+01
   0.115E+03 0.480E+02 -.402E+04   -.113E+03 -.439E+02 0.403E+04   -.179E+01 -.260E+01 -.288E+01   -.951E-01 -.254E-01 0.179E+01
   0.724E+02 0.493E+02 0.305E+04   -.717E+02 -.487E+02 -.304E+04   0.542E+00 -.176E+01 0.411E+00   0.285E-02 0.887E-01 -.268E+01
   -.722E+02 0.494E+02 0.304E+04   0.717E+02 -.487E+02 -.304E+04   -.590E+00 -.179E+01 0.315E+00   -.920E-01 0.472E-01 -.261E+01
   -.814E+01 -.583E+02 0.311E+03   0.825E+01 0.571E+02 -.306E+03   -.585E+00 0.211E+01 -.248E+00   -.794E-01 0.635E-01 -.458E+01
   0.786E+01 -.577E+02 0.311E+03   -.766E+01 0.566E+02 -.306E+03   0.403E+00 0.203E+01 -.213E+00   0.165E+00 -.364E-02 -.465E+01
   0.175E+02 0.321E+02 -.245E+04   -.170E+02 -.318E+02 0.245E+04   -.362E+00 -.442E+00 -.385E+00   0.504E-01 -.129E+00 -.109E+01
   -.209E+02 0.305E+02 -.244E+04   0.197E+02 -.300E+02 0.245E+04   0.705E+00 -.363E+00 -.307E+00   -.170E-01 0.539E-01 -.948E+00
   -.894E+02 0.225E+02 0.213E+04   0.952E+02 -.245E+02 -.214E+04   -.150E+01 0.180E+01 0.646E+01   0.136E+00 -.387E+00 -.151E+00
   0.886E+02 0.215E+02 0.213E+04   -.952E+02 -.245E+02 -.214E+04   0.195E+01 0.257E+01 0.651E+01   0.801E+00 0.420E+00 -.193E+00
   0.755E+02 -.181E+02 0.167E+04   -.778E+02 0.186E+02 -.167E+04   0.172E+01 0.292E+00 -.240E+01   0.141E+00 -.103E+00 -.143E+01
   -.763E+02 -.174E+02 0.167E+04   0.778E+02 0.186E+02 -.167E+04   -.126E+01 -.473E+00 -.344E+01   -.739E-01 0.114E+00 -.256E+01
   0.703E+02 0.284E+02 0.104E+04   -.745E+02 -.297E+02 -.104E+04   0.590E-01 0.134E+01 -.443E+01   -.375E+00 -.502E+00 -.235E+01
   -.697E+02 0.272E+02 0.104E+04   0.745E+02 -.298E+02 -.104E+04   -.289E+00 0.193E+01 -.408E+01   -.465E+00 0.404E+00 -.239E+01
   0.685E+02 -.274E+02 0.783E+03   -.735E+02 0.297E+02 -.779E+03   -.100E+01 -.256E+01 -.182E+01   0.425E+00 -.398E+00 -.219E+01
   -.691E+02 -.284E+02 0.783E+03   0.734E+02 0.297E+02 -.779E+03   0.130E+01 -.217E+01 -.160E+01   0.356E+00 0.512E+00 -.220E+01
   -.417E+02 0.188E+02 0.162E+03   0.433E+02 -.198E+02 -.158E+03   -.243E+01 -.199E+01 -.388E+01   -.151E-01 0.717E-01 -.348E+01
   0.415E+02 0.186E+02 0.160E+03   -.437E+02 -.196E+02 -.157E+03   0.248E+01 -.174E+01 -.450E+01   0.473E-01 -.430E-02 -.196E+01
   -.546E+02 -.102E+02 -.448E+03   0.589E+02 0.114E+02 0.449E+03   -.720E-01 0.258E+01 -.398E+01   -.571E+00 -.720E+00 -.179E+01
   0.573E+02 -.108E+02 -.448E+03   -.604E+02 0.110E+02 0.449E+03   0.533E+00 0.203E+01 -.361E+01   -.783E+00 0.663E+00 -.195E+01
   -.632E+02 0.237E+02 -.697E+03   0.668E+02 -.250E+02 0.700E+03   -.492E+01 0.597E+01 -.174E+01   0.843E+00 -.682E+00 -.123E+01
   0.556E+02 0.156E+02 -.697E+03   -.601E+02 -.175E+02 0.700E+03   0.630E+01 0.466E+01 -.104E+01   0.552E+00 0.748E+00 -.142E+01
   0.459E+02 -.283E+01 -.131E+04   -.488E+02 0.274E+01 0.131E+04   0.363E+01 0.688E+01 -.219E+01   -.226E+00 0.114E-01 0.162E+00
   -.356E+02 -.851E+01 -.136E+04   0.370E+02 0.929E+01 0.136E+04   -.678E+01 0.515E+01 -.506E+01   -.283E-01 -.213E-01 -.108E+01
   0.174E+02 -.150E+02 -.193E+04   -.167E+02 0.180E+02 0.193E+04   -.952E+00 -.744E+01 -.680E+01   -.416E-01 -.160E+00 0.271E+00
   -.129E+02 -.220E+02 -.193E+04   0.139E+02 0.237E+02 0.194E+04   0.379E-01 -.656E+01 -.930E+01   -.938E-01 0.206E+00 0.271E+00
   0.119E+03 -.270E+02 -.216E+04   -.133E+03 0.293E+02 0.217E+04   0.868E+01 0.473E+01 -.149E+02   -.141E+00 -.146E+00 0.824E+00
   -.162E+03 -.589E+02 -.212E+04   0.174E+03 0.616E+02 0.213E+04   -.126E+02 -.145E+00 -.139E+02   0.326E+00 0.241E+00 0.878E+00
   0.379E+02 0.961E+01 -.239E+04   -.377E+02 -.101E+02 0.241E+04   -.101E+01 0.429E+00 -.178E+02   -.583E-01 -.285E-01 0.177E+01
   -.274E+01 0.782E+01 0.135E+03   0.426E-13 0.284E-13 0.909E-12   -.588E+01 0.151E+02 -.112E+03   0.852E+00 0.303E+00 -.501E+02

 POSITION                                       TOTAL-FORCE (eV/Angst)
      0.00000      2.87365      0.10000        -1.015161      0.603175      3.552613
      2.76835      0.00000      0.10000         0.958345      0.563072      2.746243
      2.76835      0.00000      3.94645         0.472386     -0.554437      1.440538
      0.00000      2.87365      3.94645         0.201641     -0.730265      1.534296
      5.53113      2.89145      7.82676         0.894120     -1.194743      1.730440
      2.78074      0.01849      7.82825        -0.275300     -1.036156      1.126165
      2.65304      0.07459     11.60790         1.022513     -0.106612     -0.107194
      0.09018      2.95534     11.83894         0.360691      0.825555      7.067686
      2.81154      3.15527      2.02323         1.508590     -1.712715      0.951461
      5.49351      0.28162      2.02323        -1.004388     -1.750509      0.910325
      2.72516      2.59203      5.86967        -0.338738      0.306184      1.075098
      0.04319      5.46568      5.86967         0.991214      0.214821      1.069073
      2.85275      3.12299      9.76130         0.404605     -0.859736      2.166139
      5.44983      0.25610      9.76244        -0.256720     -0.483186      2.453971
      4.28762      4.63577      0.39541         4.593466     -1.223301      2.947557
      4.01743      1.76212      0.39541        -3.573247     -0.713674      3.054303
      2.35587      5.67488      2.02323        -0.206626     -0.012563     -0.695272
      0.41248      2.80123      2.02323         0.390194      0.171055     -1.543469
      4.01743      1.76212      3.65104        -4.227792     -1.176443     -5.105327
      4.28762      4.63577      3.65104         4.321763     -0.867561     -5.038942
      1.24908      1.11153      4.24186        -5.348740     -1.342927      1.360975
      1.51927      3.98518      4.24186         6.116085     -1.053520      1.350587
      3.18083      0.07242      5.86967        -0.659692     -3.668854     -2.396197
      5.12422      2.94607      5.86967         0.590748     -3.415490     -2.601249
      1.55643      4.03856      7.52133         3.837397      2.386457     -3.712055
      1.21505      1.16523      7.52137        -3.145732      2.232541     -3.872787
      4.35847      4.69440      8.08111        -0.172295      3.343514      0.889594
      3.94335      1.81781      8.08071         2.526860      2.806019      0.977480
      2.37121      5.69204      9.70161         0.742227      6.143304     -2.287401
      0.40834      2.82196      9.69758        -5.136136      5.250755      0.786285
      3.95363      1.67121     11.31664        -0.082913     -5.268834     -1.568563
      4.34803      4.56849     11.33477         1.190577     -5.260589     -4.323192
      1.20775      0.97786     11.93514        -4.762635      6.183506     -2.175796
      1.57797      3.88367     11.93713        -0.236128      2.142427     -2.902864
      5.53471      2.87576     13.72606        -0.681179     -0.740270     -0.860525
    total drift:                               -7.767618     23.210065    -27.015912

  FREE ENERGIE OF THE ION-ELECTRON SYSTEM (eV)
  free  energy   TOTEN  =      -283.04430376 eV

  energy  without entropy=     -282.77674187  energy(sigma->0) =     -282.91052281

 d Force = 0.2903683E+00[ 0.461E-01, 0.535E+00]  d Energy =-0.2021282E+00 0.492E+00
 d Force = 0.2860888E+03[ 0.285E+03, 0.287E+03]  d Ewald  = 0.2860850E+03 0.378E-02

 stress matrix after NEB project (eV)
     12.99552      1.57910     -3.07360
      1.57889     -5.04866      4.26213
     -3.07546      4.26217    -29.67303
  FORCES: max atom, RMS     8.102624    3.461044
  FORCE total and by dimension   20.475810    7.067686
  Stress total and by dimension   33.691027   29.673033

 vacuum level on the upper side and lower side of the slab        10.561         6.437

 total charge

[...]

 magnetization (x)

# of ion       s       p       d       f       tot
    1       -0.015   0.003   1.949   0.000   1.937
    2        0.021   0.019   3.328   0.000   3.367
    3        0.010   0.005   0.943   0.000   0.958
    4        0.019   0.021   2.578   0.000   2.618
    5        0.019   0.023   2.516   0.000   2.558
    6       -0.016  -0.007  -0.806   0.000  -0.829
    7        0.020   0.019   2.261   0.000   2.300
    8        0.005  -0.002  -0.214   0.000  -0.212
    9       -0.001   0.002   0.023   0.022   0.045
   10       -0.001   0.001   0.026   0.023   0.049
   11        0.000   0.001   0.012   0.002   0.014
   12       -0.001  -0.000   0.009   0.004   0.012
   13       -0.000  -0.001   0.006   0.006   0.011
   14       -0.000  -0.002   0.009   0.005   0.011
   15        0.002  -0.012   0.000   0.000  -0.011
   16        0.002   0.040   0.000   0.000   0.042
   17       -0.001   0.027   0.000   0.000   0.026
   18       -0.001   0.013   0.000   0.000   0.012
   19        0.002   0.014   0.000   0.000   0.016
   20        0.002  -0.016   0.000   0.000  -0.014
   21        0.002  -0.023   0.000   0.000  -0.021
   22        0.002   0.014   0.000   0.000   0.015
   23        0.001   0.031   0.000   0.000   0.032
   24        0.000   0.040   0.000   0.000   0.040
   25        0.000  -0.003   0.000   0.000  -0.003
   26        0.002  -0.018   0.000   0.000  -0.016
   27        0.001  -0.017   0.000   0.000  -0.016
   28        0.000  -0.008   0.000   0.000  -0.008
   29        0.001  -0.008   0.000   0.000  -0.007
   30       -0.000   0.022   0.000   0.000   0.022
   31        0.001   0.000   0.000   0.000   0.001
   32        0.000  -0.013   0.000   0.000  -0.012
   33        0.003  -0.036   0.000   0.000  -0.033
   34        0.002  -0.014   0.000   0.000  -0.012
   35        0.005   0.490   0.000   0.000   0.495
tot          0.085   0.604  12.639   0.061  13.389