 vasp.6.4.3 19Mar24 (build Jul 09 2024 15:45:28) complex

 executed on             LinuxIFC date 2024.10.29  12:03:35

 INCAR:
   ENCUT = 400.000000
   POTIM = 0.150000
   EDIFF = 1.00e-04
   EDIFFG = -1.00e-01
   ALGO = Normal
   GGA = PE
   PREC = Normal
   IBRION = 2
   IDIPOL = 3
   ISMEAR = 0
   ISPIN = 2
   LMAXMIX = 6
   LORBIT = 10
   NELM = 30
   NELMIN = 5
   NPAR = 10
   NSIM = 10
   NSW = 5
   KGAMMA = .TRUE.
   LASPH = .TRUE.
   LCHARG = .FALSE.
   LDIPOL = .TRUE.
   LWAVE = .FALSE.
   LREAL = .TRUE.
   MAGMOM = 8*1.0000 26*0.0000 2*1.0000

 POTCAR:    PAW_PBE Cr_pv 02Aug2007
 POTCAR:    PAW_PBE La 06Sep2000
 POTCAR:    PAW_PBE O 08Apr2002
 POTCAR:    PAW_PBE Cr_pv 02Aug2007
   VRHFIN =Cr : p6d5s1

   TITEL  = PAW_PBE Cr_pv 02Aug2007
   POMASS =   51.996; ZVAL   =   12.000    mass and valenz
   ENMAX  =  265.681; ENMIN  =  199.261 eV

   TITEL  = PAW_PBE La 06Sep2000
   POMASS =  138.900; ZVAL   =   11.000    mass and valenz
   ENMAX  =  219.292; ENMIN  =  164.469 eV

   TITEL  = PAW_PBE O 08Apr2002
   POMASS =   16.000; ZVAL   =    6.000    mass and valenz
   ENMAX  =  400.000; ENMIN  =  300.000 eV

  PAW_PBE Cr_pv 02Aug2007               :
  PAW_PBE La 06Sep2000                  :
  PAW_PBE O 08Apr2002                   :

 POSCAR: Cr La O
  positions in cartesian coordinates

 exchange-correlation table for PE
   RHO(1)=    0.500       N(1)  =     2000
   RHO(2)=  100.500       N(2)  =     4000

 VTST: version 4.1, (05/19/21)

 CHAIN: initializing optimizer

 OPT: Using VASP Conjugate-Gradient optimizer
 CHAIN: Read ICHAIN            0

 POSCAR: Cr La O
  positions in cartesian coordinates

 ion  position               nearest neighbor table
   1  0.000  0.500  0.003-  16 1.91  18 1.97  15 2.18  10 3.23   9 3.35   9 3.42
   2  0.500  0.000  0.003-  15 1.91  17 1.97  16 2.18   9 3.23  10 3.35  10 3.42
   3  0.500  0.000  0.136-  20 1.91  21 1.91  17 1.97  23 1.97  22 2.18  19 2.18   9 3.23  11 3.23
                            10 3.35  12 3.35  12 3.42  10 3.42
   4  0.000  0.500  0.136-  19 1.91  22 1.91  18 1.97  24 1.97  20 2.18  21 2.18  10 3.23  12 3.23
                            11 3.35   9 3.35   9 3.42  11 3.42
   5  1.000  0.499  0.269-  30 1.90  28 1.97  25 2.00  24 2.01  27 2.13  26 2.13  14 3.25  12 3.26
                            13 3.34  11 3.37
   6  0.500  0.999  0.269-  29 1.90  27 1.97  26 2.00  23 2.01  28 2.13  25 2.13  13 3.25  11 3.26
                            14 3.34  12 3.37
   7  0.489  0.003  0.400-  33 1.89  29 1.97  32 2.02  34 2.12  31 2.16  13 3.23  14 3.34  14 3.35

   8  0.011  0.503  0.400-  36 1.71  34 1.89  30 1.97  31 2.02  33 2.12  35 2.13  32 2.16  14 3.23
                            13 3.34  13 3.35
   9  0.508  0.549  0.070-  18 2.43  16 2.46  19 2.46  17 2.56  15 2.65  20 2.65  22 2.70   3 3.23
                             2 3.23   4 3.35   1 3.35   4 3.42   1 3.42
  10  0.992  0.049  0.070-  17 2.43  15 2.46  20 2.46  18 2.56  19 2.65  16 2.65  21 2.70   4 3.23
                             1 3.23   3 3.35   2 3.35   3 3.42   2 3.42
  11  0.492  0.451  0.202-  25 2.40  24 2.43  22 2.46  23 2.56  28 2.64  21 2.65  26 2.66  19 2.70
                             3 3.23   6 3.26   4 3.35   5 3.37   4 3.42
  12  0.008  0.951  0.202-  26 2.40  23 2.43  21 2.46  24 2.56  27 2.64  22 2.65  25 2.66  20 2.70
                             4 3.23   5 3.26   3 3.35   6 3.37   3 3.42
  13  0.510  0.544  0.336-  31 2.36  28 2.43  30 2.45  34 2.59  32 2.59  29 2.68  27 2.76  25 2.76
                             7 3.23   6 3.25   5 3.34   8 3.34   8 3.35
  14  0.990  0.044  0.336-  32 2.36  27 2.43  29 2.45  33 2.59  31 2.59  30 2.68  28 2.76  26 2.76
                             8 3.23   5 3.25   6 3.34   7 3.34   7 3.35
  15  0.774  0.807  0.014-   2 1.91   1 2.18  10 2.46   9 2.65
  16  0.726  0.307  0.014-   1 1.91   2 2.18   9 2.46  10 2.65
  17  0.425  0.987  0.070-   3 1.97   2 1.97  10 2.43   9 2.56
  18  0.075  0.487  0.070-   4 1.97   1 1.97   9 2.43  10 2.56
  19  0.726  0.307  0.126-   4 1.91   3 2.18   9 2.46  10 2.65  11 2.70
  20  0.774  0.807  0.126-   3 1.91   4 2.18  10 2.46   9 2.65  12 2.70
  21  0.226  0.193  0.146-   3 1.91   4 2.18  12 2.46  11 2.65  10 2.70
  22  0.274  0.693  0.146-   4 1.91   3 2.18  11 2.46  12 2.65   9 2.70
  23  0.575  0.013  0.202-   3 1.97   6 2.01  12 2.43  11 2.56
  24  0.925  0.513  0.202-   4 1.97   5 2.01  11 2.43  12 2.56
  25  0.289  0.696  0.256-   5 2.00   6 2.13  11 2.40  12 2.66  13 2.76
  26  0.211  0.196  0.256-   6 2.00   5 2.13  12 2.40  11 2.66  14 2.76
  27  0.792  0.808  0.278-   6 1.97   5 2.13  14 2.43  12 2.64  13 2.76
  28  0.708  0.308  0.278-   5 1.97   6 2.13  13 2.43  11 2.64  14 2.76
  29  0.430  0.004  0.333-   6 1.90   7 1.97  14 2.45  13 2.68
  30  0.070  0.504  0.333-   5 1.90   8 1.97  13 2.45  14 2.68
  31  0.719  0.301  0.388-   8 2.02   7 2.16  13 2.36  14 2.59
  32  0.781  0.801  0.388-   7 2.02   8 2.16  14 2.36  13 2.59
  33  0.213  0.192  0.408-   7 1.89   8 2.12  14 2.59
  34  0.287  0.692  0.408-   8 1.89   7 2.12  13 2.59
  35  0.000  0.398  0.470-  36 1.25   8 2.13
  36  0.000  0.602  0.456-  35 1.25   8 1.71

  LATTYP: Found a simple orthorhombic cell.
 ALAT       =     5.5367000000
 B/A-ratio  =     1.0380370979
 C/A-ratio  =     5.2541031011

  Lattice vectors:

 A1 = (   5.5367000000,   0.0000000000,   0.0000000000)
 A2 = (   0.0000000000,   5.7473000000,   0.0000000000)
 A3 = (   0.0000000000,   0.0000000000,  29.0903926400)

Analysis of symmetry for initial positions (statically):
 Subroutine PRICEL returns:
 Original cell was already a primitive cell.

 Routine SETGRP: Setting up the symmetry group for a
 simple orthorhombic supercell.

 Subroutine GETGRP returns: Found  1 space group operations
 (whereof  1 operations were pure point group operations)
 out of a pool of  8 trial point group operations.

The static configuration has the point symmetry C_1 .

Analysis of symmetry for dynamics (positions and initial velocities):
 Subroutine PRICEL returns:
 Original cell was already a primitive cell.

[...]

The dynamic configuration has the point symmetry C_1 .

Analysis of constrained symmetry for selective dynamics:
 Subroutine PRICEL returns:
 Original cell was already a primitive cell.

[...]

The constrained configuration has the point symmetry C_1 .

Analysis of structural, dynamic, and magnetic symmetry:
 Subroutine PRICEL returns:
 Original cell was already a primitive cell.

 Routine SETGRP: Setting up the symmetry group for a
 simple orthorhombic supercell.

 Subroutine GETGRP returns: Found  1 space group operations
 (whereof  1 operations were pure point group operations)
 out of a pool of  8 trial point group operations.

The overall configuration has the point symmetry C_1 .

 Subroutine INISYM returns: Found  1 space group operations
 (whereof  1 operations are pure point group operations),
 and found     1 'primitive' translations

                                     Primitive cell

  volume of cell :     925.6876

  direct lattice vectors                    reciprocal lattice vectors
     5.536700000  0.000000000  0.000000000     0.180613001  0.000000000  0.000000000
     0.000000000  5.747300000  0.000000000     0.000000000  0.173994745  0.000000000
     0.000000000  0.000000000 29.090392640     0.000000000  0.000000000  0.034375610

  length of vectors
     5.536700000  5.747300000 29.090392640     0.180613001  0.173994745  0.034375610

  position of ions in fractional coordinates (direct lattice)
     0.000000000  0.500000000  0.003437561
     0.500000000  0.000000000  0.003437561
     0.500000000  0.000000000  0.135661627
     0.000000000  0.500000000  0.135661627
     0.999869288  0.499384381  0.269371256
     0.500130712  0.999384381  0.269371256
     0.489395868  0.003155030  0.400064527
     0.010604132  0.503155030  0.400064527
     0.507800000  0.549000000  0.069549594
     0.992200000  0.049000000  0.069549594
     0.492200000  0.451000000  0.201773660
     0.007800000  0.951000000  0.201773660
     0.509573887  0.544166459  0.335817371
     0.990426113  0.044166459  0.335817371
     0.774400000  0.806600000  0.013592369
     0.725600000  0.306600000  0.013592369
     0.425500000  0.987400000  0.069549594
     0.074500000  0.487400000  0.069549594
     0.725600000  0.306600000  0.125506819
     0.774400000  0.806600000  0.125506819
     0.225600000  0.193400000  0.145816435
     0.274400000  0.693400000  0.145816435
     0.574500000  0.012600000  0.201773660
     0.925500000  0.512600000  0.201773660
     0.288705330  0.696341168  0.256143619
     0.211294670  0.196341168  0.256143619
     0.792048047  0.807818652  0.277526194
     0.707951953  0.307818652  0.277526194
     0.429843379  0.003571190  0.333245042
     0.070156621  0.503571190  0.333245042
     0.719086704  0.301287230  0.387742702
     0.780913296  0.801287230  0.387742702
     0.213394579  0.192287266  0.408348745
     0.286605421  0.692287266  0.408348745
     0.000000000  0.398142114  0.470224844
     0.000000000  0.601857886  0.455575951

  ion indices of the primitive-cell ions
   primitive index   ion index
                 1           1
                 2           2
                 3           3
                 4           4
                 5           5
                 6           6
                 7           7
                 8           8
                 9           9
                10          10
                11          11
                12          12
                13          13
                14          14
                15          15
                16          16
                17          17
                18          18
                19          19
                20          20
                21          21
                22          22
                23          23
                24          24
                25          25
                26          26
                27          27
                28          28
                29          29
                30          30
                31          31
                32          32
                33          33
                34          34
                35          35
                36          36

 KPOINTS: KPOINTS created by Atomic Simulation Env

Automatic generation of k-mesh.
 Grid dimensions read from file:
 generate k-points for:    1    1    1

 Generating k-lattice:

  Cartesian coordinates                     Fractional coordinates (reciprocal lattice)
     0.180613001  0.000000000  0.000000000     1.000000000  0.000000000  0.000000000
     0.000000000  0.173994745  0.000000000     0.000000000  1.000000000  0.000000000
     0.000000000  0.000000000  0.034375610     0.000000000  0.000000000  1.000000000

  Length of vectors
     0.180613001  0.173994745  0.034375610

  Shift w.r.t. Gamma in fractional coordinates (k-lattice)
     0.000000000  0.000000000  0.000000000

 Subroutine IBZKPT returns following result:

 Found      1 irreducible k-points:

 Following reciprocal coordinates:
            Coordinates               Weight
  0.000000  0.000000  0.000000      1.000000

 Following cartesian coordinates:
[...]
     36     -17.8484      1.00000
     37     -17.7590      1.00000
     38     -17.6324      1.00000
     39     -17.6037      1.00000
     40     -17.5411      1.00000
     41     -17.4746      1.00000
     42     -17.3005      1.00000
     43     -17.2886      1.00000
     44     -17.2531      1.00000
     45     -17.1698      1.00000
     46     -17.0425      1.00000
     47     -17.0337      1.00000
     48     -16.9840      1.00000
     49     -16.4512      1.00000
     50     -16.0699      1.00000
     51     -15.9934      1.00000
     52     -14.7953      1.00000
     53     -14.7693      1.00000
     54     -14.6326      1.00000
     55     -14.5551      1.00000
     56     -14.4810      1.00000
     57     -14.4039      1.00000
     58     -14.2519      1.00000
     59     -14.2081      1.00000
     60     -14.1496      1.00000
[...]
    176       3.8961      0.00000
    177       3.9585      0.00000
    178       3.9809      0.00000
    179       4.0024      0.00000
    180       4.0335      0.00000
    181       4.0790      0.00000
    182       4.0916      0.00000
    183       4.0989      0.00000
    184       4.1116      0.00000
    185       4.1710      0.00000
    186       4.1771      0.00000
    187       4.1898      0.00000
    188       4.2001      0.00000
    189       4.2168      0.00000
    190       4.2416      0.00000
 Fermi energy:         0.9731809108

 spin component 2

 k-point     1 :       0.0000    0.0000    0.0000
  band No.  band energies     occupation
      1     -43.8010      1.00000
      2     -43.7360      1.00000
      3     -43.6795      1.00000
      4     -43.6307      1.00000
      5     -43.2959      1.00000
      6     -43.2179      1.00000
      7     -43.1985      1.00000
      8     -43.0989      1.00000
      9     -43.0905      1.00000
     10     -41.2619      1.00000
     11     -41.2408      1.00000
     12     -41.2278      1.00000
     13     -41.0867      1.00000
     14     -41.0848      1.00000
     15     -41.0792      1.00000
     16     -41.0720      1.00000
     17     -41.0140      1.00000
     18     -40.9689      1.00000
     19     -40.9283      1.00000
     20     -40.9210      1.00000
     21     -40.8906      1.00000
     22     -40.1916      1.00000
     23     -39.9996      1.00000
     24     -39.6630      1.00000
     25     -31.0507      1.00000
     26     -30.9496      1.00000
     27     -30.8067      1.00000
     28     -30.7049      1.00000
     29     -30.3361      1.00000
     30     -30.2271      1.00000
     31     -23.5050      1.00000
     32     -18.5108      1.00000
     33     -18.0726      1.00000
     34     -18.0143      1.00000
     35     -17.9991      1.00000
     36     -17.8350      1.00000
     37     -17.7438      1.00000
     38     -17.5975      1.00000
     39     -17.5524      1.00000
     40     -17.5329      1.00000
     41     -17.4709      1.00000
     42     -17.2838      1.00000
     43     -17.2648      1.00000
     44     -17.2438      1.00000
     45     -17.1537      1.00000
     46     -17.0509      1.00000
     47     -17.0082      1.00000
     48     -16.9823      1.00000
     49     -16.4635      1.00000
     50     -16.1901      1.00000
     51     -16.1068      1.00000
     52     -14.7924      1.00000
     53     -14.7674      1.00000
     54     -14.6302      1.00000
     55     -14.5464      1.00000
     56     -14.4740      1.00000
     57     -14.3982      1.00000
     58     -14.2485      1.00000
     59     -14.2019      1.00000
     60     -14.1436      1.00000
[...]
    176       3.9939      0.00000
    177       4.0074      0.00000
    178       4.0196      0.00000
    179       4.0637      0.00000
    180       4.0880      0.00000
    181       4.0933      0.00000
    182       4.1034      0.00000
    183       4.1380      0.00000
    184       4.1825      0.00000
    185       4.1901      0.00000
    186       4.1995      0.00000
    187       4.2207      0.00000
    188       4.2550      0.00000
    189       4.2750      0.00000
    190       4.2934      0.00000

[...]

 soft charge-density along one line, spin component           2
         0         1         2         3         4         5         6         7         8         9
 total charge-density along one line

------------------------ aborting loop EDIFF was not reached (unconverged)  ----------------------------

[...]

  FORCE on cell =-STRESS in cart. coord.  units (eV):
  Direction    XX          YY          ZZ          XY          YZ          ZX
  Alpha Z   614.47479   614.47479   614.47479
  Ewald  155487.70247155464.24766************    -7.03395    25.12963   -97.20696
  Hartree162474.55350162568.78368************    -4.93388     7.25332   -69.46554
  E(xc)   -1424.31813 -1424.95402 -1424.81153    -0.02131     0.09380    -0.14802
  Local  ************************321624.70755    11.50552   -45.04837   166.57307
  n-local   131.25965   113.99818   129.70065    -0.13620     5.21151    -0.86794
  augment   623.57718   621.68502   619.02162     0.23216     1.22504     0.10577
  Kinetic  5136.81756  5093.97579  5074.27493     0.87316    13.55755    -2.08312
  Fock        0.00000     0.00000     0.00000     0.00000     0.00000     0.00000
  Total       7.86238   -19.57400   -17.43563     0.48550     7.42247    -3.09275
  in kB      13.60819   -33.87862   -30.17753     0.84030    12.84679    -5.35292

 VOLUME and BASIS-vectors are now :
  energy-cutoff  :      400.00
  volume of cell :      925.69
      direct lattice vectors                 reciprocal lattice vectors
     5.536700000  0.000000000  0.000000000     0.180613001  0.000000000  0.000000000
     0.000000000  5.747300000  0.000000000     0.000000000  0.173994745  0.000000000
     0.000000000  0.000000000 29.090392640     0.000000000  0.000000000  0.034375610

  length of vectors
     5.536700000  5.747300000 29.090392640     0.180613001  0.173994745  0.034375610

 FORCES acting on ions
    electron-ion (+dipol)            ewald-force                    non-local-force                 convergence-correction
   -.247E+03 -.383E+02 0.456E+04   0.244E+03 0.366E+02 -.455E+04   0.206E+01 0.272E+01 -.778E+01   0.100E+00 -.101E-01 -.107E+00
   0.247E+03 -.381E+02 0.456E+04   -.244E+03 0.366E+02 -.455E+04   -.189E+01 0.253E+01 -.775E+01   -.122E+00 0.424E-01 -.110E+00
   0.682E+01 -.359E-01 0.191E+04   -.672E+01 0.700E-01 -.190E+04   -.119E+00 -.710E-02 -.485E+00   -.920E-03 -.669E-03 -.917E+00
   -.678E+01 -.831E-02 0.191E+04   0.672E+01 0.525E-01 -.190E+04   0.262E+00 -.106E+00 -.515E+00   0.149E-02 0.315E-03 -.909E+00
   -.319E+01 0.105E+02 -.103E+04   0.317E+01 -.104E+02 0.104E+04   0.109E+00 -.574E-01 -.334E+00   0.244E-02 0.124E-02 -.871E+00
   0.353E+01 0.943E+01 -.104E+04   -.335E+01 -.938E+01 0.104E+04   0.214E+00 0.588E-01 -.199E+00   0.705E-03 0.454E-02 -.886E+00
   -.854E+02 -.911E+01 -.413E+04   0.816E+02 0.102E+02 0.412E+04   0.267E+01 -.127E+01 0.563E+01   0.556E-01 0.578E-01 -.284E+00
   0.569E+02 0.476E+02 -.371E+04   -.556E+02 -.462E+02 0.371E+04   -.149E+01 -.214E+01 0.225E+01   -.611E-01 -.414E-01 -.510E+00
   0.722E+02 0.495E+02 0.309E+04   -.716E+02 -.487E+02 -.309E+04   0.671E+00 -.181E+01 0.232E+00   -.265E-01 0.501E-02 -.703E+00
   -.722E+02 0.495E+02 0.309E+04   0.716E+02 -.487E+02 -.309E+04   -.683E+00 -.181E+01 0.238E+00   0.303E-01 0.104E-01 -.711E+00
   -.148E+02 -.526E+02 0.405E+03   0.147E+02 0.515E+02 -.404E+03   -.423E+00 0.195E+01 -.354E+00   -.538E-04 0.302E-02 -.840E+00
   0.148E+02 -.528E+02 0.405E+03   -.148E+02 0.516E+02 -.404E+03   0.401E+00 0.193E+01 -.360E+00   -.516E-03 -.259E-03 -.840E+00
   0.198E+02 0.345E+02 -.231E+04   -.190E+02 -.343E+02 0.231E+04   -.157E-01 -.332E+00 -.166E+01   0.126E-01 -.235E-01 -.694E+00
   -.181E+02 0.346E+02 -.231E+04   0.171E+02 -.346E+02 0.231E+04   0.142E+00 -.212E+00 -.161E+01   -.108E-01 0.397E-02 -.679E+00
   -.891E+02 0.218E+02 0.215E+04   0.952E+02 -.245E+02 -.215E+04   -.192E+01 0.243E+01 0.604E+01   -.535E-01 0.306E-01 -.146E+00
   0.891E+02 0.218E+02 0.215E+04   -.952E+02 -.245E+02 -.215E+04   0.204E+01 0.262E+01 0.596E+01   0.227E-01 -.772E-02 -.143E+00
   0.766E+02 -.177E+02 0.170E+04   -.778E+02 0.186E+02 -.169E+04   0.842E+00 -.614E-01 -.311E+01   -.377E-02 0.112E-01 -.476E+00
   -.766E+02 -.178E+02 0.170E+04   0.778E+02 0.186E+02 -.169E+04   -.909E+00 0.592E-01 -.319E+01   0.523E-02 0.111E-03 -.451E+00
   0.703E+02 0.277E+02 0.108E+04   -.745E+02 -.298E+02 -.108E+04   -.192E+00 0.143E+01 -.450E+01   0.299E-02 0.166E-02 -.451E+00
   -.702E+02 0.276E+02 0.108E+04   0.745E+02 -.297E+02 -.108E+04   0.142E+00 0.151E+01 -.445E+01   0.236E-02 -.136E-02 -.452E+00
   0.690E+02 -.278E+02 0.825E+03   -.733E+02 0.297E+02 -.823E+03   -.158E+01 -.220E+01 -.145E+01   -.242E-02 0.247E-02 -.461E+00
   -.690E+02 -.278E+02 0.825E+03   0.733E+02 0.297E+02 -.823E+03   0.156E+01 -.222E+01 -.144E+01   -.393E-02 -.251E-02 -.460E+00
   -.441E+02 0.175E+02 0.210E+03   0.459E+02 -.183E+02 -.208E+03   -.248E+01 -.209E+01 -.454E+01   0.427E-02 0.487E-03 -.472E+00
   0.438E+02 0.179E+02 0.210E+03   -.460E+02 -.184E+02 -.208E+03   0.259E+01 -.229E+01 -.444E+01   0.218E-04 -.429E-03 -.467E+00
   -.525E+02 -.846E+01 -.371E+03   0.560E+02 0.858E+01 0.369E+03   -.488E+01 -.373E+00 0.440E+01   -.184E-02 -.847E-02 -.449E+00
   0.520E+02 -.811E+01 -.371E+03   -.554E+02 0.820E+01 0.370E+03   0.467E+01 -.207E+00 0.444E+01   -.139E-01 0.545E-02 -.448E+00
   -.468E+02 0.751E+01 -.632E+03   0.506E+02 -.748E+01 0.634E+03   -.725E+01 0.908E+00 -.112E+01   0.154E-01 -.581E-02 -.432E+00
   0.477E+02 0.872E+01 -.633E+03   -.517E+02 -.867E+01 0.635E+03   0.713E+01 0.653E+00 -.112E+01   0.279E-02 0.581E-02 -.429E+00
   0.408E+02 -.164E+02 -.126E+04   -.444E+02 0.176E+02 0.126E+04   0.404E+01 -.191E+01 -.342E+01   -.629E-02 0.115E-01 -.416E+00
   -.473E+02 -.145E+02 -.124E+04   0.493E+02 0.152E+02 0.124E+04   -.265E+01 -.128E+01 -.388E+01   0.296E-02 -.451E-02 -.423E+00
   0.800E+02 0.277E+02 -.186E+04   -.836E+02 -.276E+02 0.186E+04   0.141E+01 -.296E+01 -.144E+01   -.223E-01 -.139E-01 -.227E+00
   -.154E+02 -.287E+02 -.186E+04   0.188E+02 0.293E+02 0.186E+04   -.106E+01 -.346E+01 -.173E+01   0.664E-02 0.222E-01 -.230E+00
   0.242E+02 0.347E+02 -.208E+04   -.322E+02 -.359E+02 0.210E+04   0.102E+02 -.341E+01 -.872E+01   -.120E-01 -.408E-01 -.135E+00
   -.143E+03 -.441E+02 -.207E+04   0.150E+03 0.445E+02 0.208E+04   -.853E+01 0.746E+00 -.938E+01   0.533E-01 0.280E-01 -.170E+00
   0.297E+02 0.246E+03 -.243E+04   -.292E+02 -.285E+03 0.245E+04   -.178E+00 0.449E+02 -.143E+02   -.152E-01 -.914E-01 0.214E+00
   0.523E+02 -.291E+03 -.243E+04   -.521E+02 0.335E+03 0.244E+04   -.267E+00 -.462E+02 -.308E+01   -.585E-01 0.147E+00 0.137E+00
   -.481E+01 0.105E+01 0.946E+02   0.711E-14 -.114E-12 -.909E-12   0.458E+01 -.120E+02 -.671E+02   -.939E-01 0.143E+00 -.160E+02

 POSITION                                       TOTAL-FORCE (eV/Angst)
      0.00000      2.87365      0.10000        -0.934309      1.309538      1.530750
      2.76835      0.00000      0.10000         0.854892      1.361788      1.489933
      2.76835      0.00000      3.94645        -0.013327      0.325894      0.365652
      0.00000      2.87365      3.94645         0.208649      0.237684      0.231172
      5.53566      2.87463      7.82972         0.103017      0.350908     -0.282581
      2.76971      0.00085      7.82959         0.400356      0.417396     -0.240053
      2.70313      0.01841     11.63200        -1.040018      0.229315     -1.041294
      0.06048      2.88924     11.63803        -0.179669     -0.383922      0.327566
      2.81154      3.15527      2.02323         1.253458     -0.730340     -0.399638
      5.49351      0.28162      2.02323        -1.228230     -0.732560     -0.400695
      2.72516      2.59203      5.86967        -0.464200      1.088876     -0.149802
      0.04319      5.46568      5.86967         0.499756      1.072588     -0.154428
      2.82668      3.13042      9.77026         0.819109      0.127690      0.690831
      5.47924      0.25497      9.77073        -0.769988      0.004295      0.614386
      4.28762      4.63577      0.39541         4.124637      0.069267      1.788604
      4.01743      1.76212      0.39541        -4.015525      0.164667      1.780795
      2.35587      5.67488      2.02323        -0.295621      1.092325     -2.382068
      0.41248      2.80123      2.02323         0.305015      1.126008     -2.410775
      4.01743      1.76212      3.65104        -4.427365     -0.358017     -6.114149
      4.28762      4.63577      3.65104         4.413073     -0.342560     -6.103719
      1.24908      1.11153      4.24186        -5.886340      0.049095      0.108776
      1.51927      3.98518      4.24186         5.875753      0.026580      0.124372
      3.18083      0.07242      5.86967        -0.655867     -2.649190     -3.484588
      5.12422      2.94607      5.86967         0.394035     -2.517604     -3.462150
      1.58838      4.00756      7.46650        -1.346933      0.043316      2.329872
      1.18011      1.13324      7.46645         1.208884      0.191268      2.298119
      4.38258      4.65060      8.07649        -3.342389      1.223769      0.244017
      3.92178      1.77609      8.07650         3.166320      1.006593      0.198439
      2.37957      0.00095      9.70018         0.429577     -0.403652     -3.622590
      0.38852      2.87530      9.69996        -0.657294     -0.240786     -3.172961
      3.97452      1.72871     11.28278        -2.213755     -2.553283      1.754706
      4.32977      4.60321     11.28175         2.331141     -2.464061      1.757823
      1.18053      1.09287     11.89192         2.190251     -4.406034      2.992654
      1.60082      3.97378     11.88664        -1.296557      1.484942      2.007376
      5.53452      2.23854     13.70336         0.305229      6.132015      5.593231
      5.53063      3.50450     13.26530        -0.115763     -1.353810      5.192416
    total drift:                               -0.321246    -10.782483     11.399879

  FREE ENERGIE OF THE ION-ELECTRON SYSTEM (eV)
  free  energy   TOTEN  =      -292.14600918 eV

  energy  without entropy=     -291.86905849  energy(sigma->0) =     -292.00753383

 d Force = 0.3805636E+00[-0.999E-01, 0.861E+00]  d Energy = 0.5734633E+00-0.193E+00
 d Force =-0.1688850E+03[-0.171E+03,-0.167E+03]  d Ewald  =-0.1688329E+03-0.521E-01

 stress matrix after NEB project (eV)
      7.86238      0.48551     -3.09275
      0.48550    -19.57400      7.42275
     -3.09267      7.42247    -17.43563
  FORCES: max atom, RMS     8.305360    2.555322
  FORCE total and by dimension   15.331933    6.132015
  Stress total and by dimension   29.643736   19.574001

 vacuum level on the upper side and lower side of the slab         6.614         4.058

 total charge

[...]

 magnetization (x)

# of ion       s       p       d       f       tot
    1       -0.043  -0.038  -3.066   0.000  -3.148
    2        0.046   0.041   3.103   0.000   3.190
    3       -0.016  -0.024  -2.402   0.000  -2.442
    4        0.016   0.024   2.431   0.000   2.471
    5        0.019   0.024   2.613   0.000   2.656
    6        0.019   0.023   2.600   0.000   2.642
    7        0.022   0.021   2.393   0.000   2.436
    8        0.009  -0.001  -0.232   0.000  -0.224
    9        0.001   0.001   0.000   0.000   0.002
   10       -0.001  -0.001   0.001   0.001   0.001
   11        0.000  -0.000   0.008   0.007   0.014
   12       -0.000  -0.001   0.003   0.006   0.009
   13       -0.000  -0.003   0.009   0.008   0.014
   14       -0.000  -0.003   0.007   0.009   0.012
   15       -0.002  -0.001   0.000   0.000  -0.003
   16        0.002  -0.001   0.000   0.000   0.001
   17       -0.002  -0.021   0.000   0.000  -0.023
   18        0.002   0.020   0.000   0.000   0.022
   19        0.001   0.027   0.000   0.000   0.028
   20       -0.000  -0.025   0.000   0.000  -0.025
   21       -0.000  -0.025   0.000   0.000  -0.025
   22        0.000   0.026   0.000   0.000   0.026
   23        0.000  -0.011   0.000   0.000  -0.010
   24       -0.000   0.040   0.000   0.000   0.040
   25        0.001  -0.017   0.000   0.000  -0.016
   26        0.001  -0.020   0.000   0.000  -0.019
   27        0.000  -0.013   0.000   0.000  -0.013
   28        0.000  -0.015   0.000   0.000  -0.015
   29        0.000   0.023   0.000   0.000   0.024
   30       -0.000   0.023   0.000   0.000   0.023
   31        0.000  -0.020   0.000   0.000  -0.020
   32        0.001  -0.014   0.000   0.000  -0.013
   33        0.002  -0.078   0.000   0.000  -0.076
   34        0.001  -0.103   0.000   0.000  -0.102
   35       -0.000  -0.027   0.000   0.000  -0.027
   36       -0.000  -0.003   0.000   0.000  -0.003
tot          0.078  -0.171   7.468   0.032   7.407