 vasp.6.4.3 19Mar24 (build Jul 09 2024 15:45:28) complex

 executed on             LinuxIFC date 2024.10.29  11:50:26

 INCAR:
   ENCUT = 400.000000
   POTIM = 0.150000
   EDIFF = 1.00e-04
   EDIFFG = -1.00e-01
   ALGO = Normal
   GGA = PE
   PREC = Normal
   IBRION = 2
   IDIPOL = 3
   ISMEAR = 0
   ISPIN = 2
   LMAXMIX = 6
   LORBIT = 10
   NELM = 30
   NELMIN = 5
   NPAR = 10
   NSIM = 10
   NSW = 5
   KGAMMA = .TRUE.
   LASPH = .TRUE.
   LCHARG = .FALSE.
   LDIPOL = .TRUE.
   LWAVE = .FALSE.
   LREAL = .TRUE.
   MAGMOM = 8*1.0000 26*0.0000

 POTCAR:    PAW_PBE Cr_pv 02Aug2007
 POTCAR:    PAW_PBE La 06Sep2000
 POTCAR:    PAW_PBE O 08Apr2002
 POTCAR:    PAW_PBE Cr_pv 02Aug2007
   VRHFIN =Cr : p6d5s1

   TITEL  = PAW_PBE Cr_pv 02Aug2007
   POMASS =   51.996; ZVAL   =   12.000    mass and valenz
   ENMAX  =  265.681; ENMIN  =  199.261 eV

   TITEL  = PAW_PBE La 06Sep2000
   POMASS =  138.900; ZVAL   =   11.000    mass and valenz
   ENMAX  =  219.292; ENMIN  =  164.469 eV

   TITEL  = PAW_PBE O 08Apr2002
   POMASS =   16.000; ZVAL   =    6.000    mass and valenz
   ENMAX  =  400.000; ENMIN  =  300.000 eV

  PAW_PBE Cr_pv 02Aug2007               :
  PAW_PBE La 06Sep2000                  :
  PAW_PBE O 08Apr2002                   :

 POSCAR: Cr La O
  positions in cartesian coordinates

 exchange-correlation table for PE
   RHO(1)=    0.500       N(1)  =     2000
   RHO(2)=  100.500       N(2)  =     4000

 VTST: version 4.1, (05/19/21)

 CHAIN: initializing optimizer

 OPT: Using VASP Conjugate-Gradient optimizer
 CHAIN: Read ICHAIN            0

 POSCAR: Cr La O
  positions in cartesian coordinates

 ion  position               nearest neighbor table
   1  0.000  0.500  0.003-  16 1.91  18 1.97  15 2.18  10 3.23   9 3.35   9 3.42
   2  0.500  0.000  0.003-  15 1.91  17 1.97  16 2.18   9 3.23  10 3.35  10 3.42
   3  0.500  0.000  0.136-  20 1.91  21 1.91  17 1.97  23 1.97  22 2.18  19 2.18   9 3.23  11 3.23
                            10 3.35  12 3.35  12 3.42  10 3.42
   4  0.000  0.500  0.136-  19 1.91  22 1.91  18 1.97  24 1.97  20 2.18  21 2.18  10 3.23  12 3.23
                            11 3.35   9 3.35   9 3.42  11 3.42
   5  0.000  0.500  0.268-  28 1.91  25 1.91  30 1.97  24 1.97  27 2.18  26 2.18  14 3.23  12 3.23
                            13 3.35  11 3.35  13 3.42  11 3.42
   6  0.500  0.000  0.268-  27 1.91  26 1.91  29 1.97  23 1.97  28 2.18  25 2.18  13 3.23  11 3.23
                            14 3.35  12 3.35  14 3.42  12 3.42
   7  0.500  0.000  0.400-  33 1.91  32 1.91  29 1.97  34 2.18  31 2.18  13 3.23  14 3.35  14 3.42

   8  0.000  0.500  0.400-  34 1.91  31 1.91  30 1.97  33 2.18  32 2.18  14 3.23  13 3.35  13 3.42

   9  0.508  0.549  0.070-  18 2.43  16 2.46  19 2.46  17 2.56  15 2.65  20 2.65  22 2.70   3 3.23
                             2 3.23   4 3.35   1 3.35   4 3.42   1 3.42
  10  0.992  0.049  0.070-  17 2.43  15 2.46  20 2.46  18 2.56  19 2.65  16 2.65  21 2.70   4 3.23
                             1 3.23   3 3.35   2 3.35   3 3.42   2 3.42
  11  0.492  0.451  0.202-  24 2.43  22 2.46  25 2.46  23 2.56  21 2.65  26 2.65  19 2.70  28 2.70
                             3 3.23   6 3.23   4 3.35   5 3.35   4 3.42   5 3.42
  12  0.008  0.951  0.202-  23 2.43  21 2.46  26 2.46  24 2.56  25 2.65  22 2.65  20 2.70  27 2.70
                             4 3.23   5 3.23   3 3.35   6 3.35   3 3.42   6 3.42
  13  0.508  0.549  0.334-  30 2.43  28 2.46  31 2.46  29 2.56  27 2.65  32 2.65  25 2.70  34 2.70
                             6 3.23   7 3.23   5 3.35   8 3.35   5 3.42   8 3.42
  14  0.992  0.049  0.334-  29 2.43  27 2.46  32 2.46  30 2.56  31 2.65  28 2.65  26 2.70  33 2.70
                             5 3.23   8 3.23   6 3.35   7 3.35   6 3.42   7 3.42
  15  0.774  0.807  0.014-   2 1.91   1 2.18  10 2.46   9 2.65
  16  0.726  0.307  0.014-   1 1.91   2 2.18   9 2.46  10 2.65
  17  0.425  0.987  0.070-   3 1.97   2 1.97  10 2.43   9 2.56
  18  0.075  0.487  0.070-   4 1.97   1 1.97   9 2.43  10 2.56
  19  0.726  0.307  0.126-   4 1.91   3 2.18   9 2.46  10 2.65  11 2.70
  20  0.774  0.807  0.126-   3 1.91   4 2.18  10 2.46   9 2.65  12 2.70
  21  0.226  0.193  0.146-   3 1.91   4 2.18  12 2.46  11 2.65  10 2.70
  22  0.274  0.693  0.146-   4 1.91   3 2.18  11 2.46  12 2.65   9 2.70
  23  0.575  0.013  0.202-   3 1.97   6 1.97  12 2.43  11 2.56
  24  0.925  0.513  0.202-   4 1.97   5 1.97  11 2.43  12 2.56
  25  0.274  0.693  0.258-   5 1.91   6 2.18  11 2.46  12 2.65  13 2.70
  26  0.226  0.193  0.258-   6 1.91   5 2.18  12 2.46  11 2.65  14 2.70
  27  0.774  0.807  0.278-   6 1.91   5 2.18  14 2.46  13 2.65  12 2.70
  28  0.726  0.307  0.278-   5 1.91   6 2.18  13 2.46  14 2.65  11 2.70
  29  0.425  0.987  0.334-   6 1.97   7 1.97  14 2.43  13 2.56
  30  0.075  0.487  0.334-   5 1.97   8 1.97  13 2.43  14 2.56
  31  0.726  0.307  0.390-   8 1.91   7 2.18  13 2.46  14 2.65
  32  0.774  0.807  0.390-   7 1.91   8 2.18  14 2.46  13 2.65
  33  0.226  0.193  0.410-   7 1.91   8 2.18  14 2.70
  34  0.274  0.693  0.410-   8 1.91   7 2.18  13 2.70

  LATTYP: Found a simple orthorhombic cell.
 ALAT       =     5.5367000000
 B/A-ratio  =     1.0380370979
 C/A-ratio  =     5.2541031011

  Lattice vectors:

 A1 = (   5.5367000000,   0.0000000000,   0.0000000000)
 A2 = (   0.0000000000,   5.7473000000,   0.0000000000)
 A3 = (   0.0000000000,   0.0000000000,  29.0903926400)

Analysis of symmetry for initial positions (statically):
 Subroutine PRICEL returns:
 Original cell was already a primitive cell.

 Routine SETGRP: Setting up the symmetry group for a
 simple orthorhombic supercell.

 Subroutine GETGRP returns: Found  2 space group operations
 (whereof  1 operations were pure point group operations)
 out of a pool of  8 trial point group operations.

The static configuration has the point symmetry C_1 .
 The point group associated with its full space group is C_1h.

Analysis of symmetry for dynamics (positions and initial velocities):
 Subroutine PRICEL returns:
 Original cell was already a primitive cell.

[...]

The dynamic configuration has the point symmetry C_1 .
 The point group associated with its full space group is C_1h.

Analysis of constrained symmetry for selective dynamics:
 Subroutine PRICEL returns:
 Original cell was already a primitive cell.

[...]

The constrained configuration has the point symmetry C_1 .
 The point group associated with its full space group is C_1h.

Analysis of structural, dynamic, and magnetic symmetry:
 Subroutine PRICEL returns:
 Original cell was already a primitive cell.

 Routine SETGRP: Setting up the symmetry group for a
 simple orthorhombic supercell.

 Subroutine GETGRP returns: Found  2 space group operations
 (whereof  1 operations were pure point group operations)
 out of a pool of  8 trial point group operations.

The overall configuration has the point symmetry C_1 .
 The point group associated with its full space group is C_1h.

 Subroutine INISYM returns: Found  2 space group operations
 (whereof  1 operations are pure point group operations),
 and found     1 'primitive' translations

                                     Primitive cell

  volume of cell :     925.6876

  direct lattice vectors                    reciprocal lattice vectors
     5.536700000  0.000000000  0.000000000     0.180613001  0.000000000  0.000000000
     0.000000000  5.747300000  0.000000000     0.000000000  0.173994745  0.000000000
     0.000000000  0.000000000 29.090392640     0.000000000  0.000000000  0.034375610

  length of vectors
     5.536700000  5.747300000 29.090392640     0.180613001  0.173994745  0.034375610

  position of ions in fractional coordinates (direct lattice)
     0.000000000  0.500000000  0.003437561
     0.500000000  0.000000000  0.003437561
     0.500000000  0.000000000  0.135661627
     0.000000000  0.500000000  0.135661627
     0.000000000  0.500000000  0.267885693
     0.500000000  0.000000000  0.267885693
     0.500000000  0.000000000  0.400109759
     0.000000000  0.500000000  0.400109759
     0.507800000  0.549000000  0.069549594
     0.992200000  0.049000000  0.069549594
     0.492200000  0.451000000  0.201773660
     0.007800000  0.951000000  0.201773660
     0.507800000  0.549000000  0.333997726
     0.992200000  0.049000000  0.333997726
     0.774400000  0.806600000  0.013592369
     0.725600000  0.306600000  0.013592369
     0.425500000  0.987400000  0.069549594
     0.074500000  0.487400000  0.069549594
     0.725600000  0.306600000  0.125506819
     0.774400000  0.806600000  0.125506819
     0.225600000  0.193400000  0.145816435
     0.274400000  0.693400000  0.145816435
     0.574500000  0.012600000  0.201773660
     0.925500000  0.512600000  0.201773660
     0.274400000  0.693400000  0.257730885
     0.225600000  0.193400000  0.257730885
     0.774400000  0.806600000  0.278040502
     0.725600000  0.306600000  0.278040502
     0.425500000  0.987400000  0.333997726
     0.074500000  0.487400000  0.333997726
     0.725600000  0.306600000  0.389954951
     0.774400000  0.806600000  0.389954951
     0.225600000  0.193400000  0.410264568
     0.274400000  0.693400000  0.410264568

  ion indices of the primitive-cell ions
   primitive index   ion index
                 1           1
                 2           2
                 3           3
                 4           4
                 5           5
                 6           6
                 7           7
                 8           8
                 9           9
                10          10
                11          11
                12          12
                13          13
                14          14
                15          15
                16          16
                17          17
                18          18
                19          19
                20          20
                21          21
                22          22
                23          23
                24          24
                25          25
                26          26
                27          27
                28          28
                29          29
                30          30
                31          31
                32          32
                33          33
                34          34

 KPOINTS: KPOINTS created by Atomic Simulation Env

Automatic generation of k-mesh.
 Grid dimensions read from file:
 generate k-points for:    1    1    1

 Generating k-lattice:

  Cartesian coordinates                     Fractional coordinates (reciprocal lattice)
     0.180613001  0.000000000  0.000000000     1.000000000  0.000000000  0.000000000
     0.000000000  0.173994745  0.000000000     0.000000000  1.000000000  0.000000000
     0.000000000  0.000000000  0.034375610     0.000000000  0.000000000  1.000000000

  Length of vectors
     0.180613001  0.173994745  0.034375610

  Shift w.r.t. Gamma in fractional coordinates (k-lattice)
     0.000000000  0.000000000  0.000000000

 Subroutine IBZKPT returns following result:

 Found      1 irreducible k-points:

 Following reciprocal coordinates:
            Coordinates               Weight
  0.000000  0.000000  0.000000      1.000000

 Following cartesian coordinates:
[...]
     21     -41.8886      1.00000
     22     -41.8870      1.00000
     23     -41.4369      1.00000
     24     -41.4334      1.00000
     25     -30.8416      1.00000
     26     -30.7398      1.00000
     27     -30.5228      1.00000
     28     -30.4198      1.00000
     29     -30.2590      1.00000
     30     -30.1560      1.00000
     31     -18.2816      1.00000
     32     -17.8838      1.00000
     33     -17.8741      1.00000
     34     -17.8146      1.00000
     35     -17.5942      1.00000
     36     -17.5680      1.00000
     37     -17.5318      1.00000
     38     -17.4516      1.00000
     39     -17.4283      1.00000
     40     -17.2802      1.00000
     41     -17.0924      1.00000
     42     -17.0703      1.00000
     43     -17.0315      1.00000
     44     -17.0297      1.00000
     45     -16.9488      1.00000
     46     -16.8379      1.00000
     47     -16.7853      1.00000
     48     -16.4492      1.00000
     49     -16.1031      1.00000
     50     -15.9910      1.00000
     51     -14.5702      1.00000
     52     -14.5640      1.00000
     53     -14.4357      1.00000
     54     -14.2772      1.00000
     55     -14.2280      1.00000
     56     -14.1631      1.00000
     57     -14.0329      1.00000
     58     -14.0067      1.00000
     59     -13.9665      1.00000
     60     -13.9028      1.00000
[...]
    166       4.0022      0.00000
    167       4.0569      0.00000
    168       4.0656      0.00000
    169       4.0869      0.00000
    170       4.1386      0.00000
    171       4.1860      0.00000
    172       4.2032      0.00000
    173       4.2337      0.00000
    174       4.2574      0.00000
    175       4.3029      0.00000
    176       4.3234      0.00000
    177       4.3484      0.00000
    178       4.3569      0.00000
    179       4.3729      0.00000
    180       4.3751      0.00000
 Fermi energy:         1.4188733554

 spin component 2

 k-point     1 :       0.0000    0.0000    0.0000
  band No.  band energies     occupation
      1     -42.8839      1.00000
      2     -42.8805      1.00000
      3     -42.6139      1.00000
      4     -42.6123      1.00000
      5     -42.3925      1.00000
      6     -42.3870      1.00000
      7     -41.9510      1.00000
      8     -41.9501      1.00000
      9     -41.7592      1.00000
     10     -41.7543      1.00000
     11     -41.3707      1.00000
     12     -41.3661      1.00000
     13     -40.7789      1.00000
     14     -40.7763      1.00000
     15     -40.7043      1.00000
     16     -40.7029      1.00000
     17     -40.6769      1.00000
     18     -40.6746      1.00000
     19     -40.6135      1.00000
     20     -40.6093      1.00000
     21     -40.5942      1.00000
     22     -40.5939      1.00000
     23     -40.5868      1.00000
     24     -40.5857      1.00000
     25     -30.8346      1.00000
     26     -30.7332      1.00000
     27     -30.5133      1.00000
     28     -30.4110      1.00000
     29     -30.2533      1.00000
     30     -30.1506      1.00000
     31     -18.2384      1.00000
     32     -17.8689      1.00000
     33     -17.8467      1.00000
     34     -17.7813      1.00000
     35     -17.5530      1.00000
     36     -17.5381      1.00000
     37     -17.5013      1.00000
     38     -17.4124      1.00000
     39     -17.3919      1.00000
     40     -17.2550      1.00000
     41     -17.0620      1.00000
     42     -17.0444      1.00000
     43     -17.0090      1.00000
     44     -17.0070      1.00000
     45     -16.8968      1.00000
     46     -16.8123      1.00000
     47     -16.7273      1.00000
     48     -16.4325      1.00000
     49     -16.0335      1.00000
     50     -15.9148      1.00000
     51     -14.5608      1.00000
     52     -14.5502      1.00000
     53     -14.4153      1.00000
     54     -14.2559      1.00000
     55     -14.2107      1.00000
     56     -14.1466      1.00000
     57     -14.0197      1.00000
     58     -13.9911      1.00000
     59     -13.9494      1.00000
     60     -13.8885      1.00000
[...]
    166       4.1238      0.00000
    167       4.1438      0.00000
    168       4.1566      0.00000
    169       4.2348      0.00000
    170       4.2681      0.00000
    171       4.3035      0.00000
    172       4.3075      0.00000
    173       4.3445      0.00000
    174       4.3602      0.00000
    175       4.3648      0.00000
    176       4.3858      0.00000
    177       4.4073      0.00000
    178       4.4209      0.00000
    179       4.4454      0.00000
    180       4.4941      0.00000

[...]

 soft charge-density along one line, spin component           2
         0         1         2         3         4         5         6         7         8         9
 total charge-density along one line

------------------------ aborting loop EDIFF was not reached (unconverged)  ----------------------------

[...]

  FORCE on cell =-STRESS in cart. coord.  units (eV):
  Direction    XX          YY          ZZ          XY          YZ          ZX
  Alpha Z   575.28389   575.28389   575.28389
  Ewald  156413.13577156017.14759************    -0.00000    79.00937    -0.00000
  Hartree162979.03858162887.50189************    -0.00000    36.15776    -0.00000
  E(xc)   -1361.92567 -1363.55190 -1363.58387     0.00000     0.27228     0.00000
  Local  ************************323530.22223     0.00000  -119.83832     0.00000
  n-local   175.25408   170.75320   172.97820     0.00030     2.29581    -0.00004
  augment   608.97037   611.02736   605.58377     0.00000     2.32213     0.00000
  Kinetic  4855.19204  4849.77069  4805.84886    -0.00001     5.64424    -0.00001
  Fock        0.00000     0.00000     0.00000     0.00000     0.00000     0.00000
  Total       4.39660    -8.23338   -19.59864     0.00000     5.86326     0.00000
  in kB       7.60962   -14.25030   -33.92126     0.00000    10.14812     0.00000

 VOLUME and BASIS-vectors are now :
  energy-cutoff  :      400.00
  volume of cell :      925.69
      direct lattice vectors                 reciprocal lattice vectors
     5.536700000  0.000000000  0.000000000     0.180613001  0.000000000  0.000000000
     0.000000000  5.747300000  0.000000000     0.000000000  0.173994745  0.000000000
     0.000000000  0.000000000 29.090392640     0.000000000  0.000000000  0.034375610

  length of vectors
     5.536700000  5.747300000 29.090392640     0.180613001  0.173994745  0.034375610

 FORCES acting on ions
    electron-ion (+dipol)            ewald-force                    non-local-force                 convergence-correction
   -.246E+03 -.382E+02 0.453E+04   0.244E+03 0.366E+02 -.452E+04   0.803E+00 0.251E+01 -.731E+01   0.272E-01 -.738E-02 -.355E+00
   0.246E+03 -.382E+02 0.453E+04   -.244E+03 0.366E+02 -.452E+04   -.803E+00 0.251E+01 -.731E+01   -.272E-01 -.738E-02 -.355E+00
   0.661E+01 -.948E-01 0.177E+04   -.651E+01 0.136E+00 -.176E+04   -.171E+00 -.890E-01 -.808E+00   -.135E-02 0.604E-04 -.881E+00
   -.661E+01 -.948E-01 0.177E+04   0.651E+01 0.136E+00 -.176E+04   0.171E+00 -.890E-01 -.808E+00   0.135E-02 0.604E-04 -.881E+00
   -.445E+01 0.104E+02 -.129E+04   0.417E+01 -.104E+02 0.129E+04   0.114E+00 -.472E-01 -.357E+00   -.257E-02 0.233E-02 -.822E+00
   0.445E+01 0.104E+02 -.129E+04   -.417E+01 -.104E+02 0.129E+04   -.114E+00 -.472E-01 -.357E+00   0.257E-02 0.233E-02 -.822E+00
   -.786E+02 -.554E+01 -.437E+04   0.746E+02 0.656E+01 0.437E+04   0.290E+01 -.131E+01 0.583E+01   0.186E-01 0.114E-02 -.957E-01
   0.786E+02 -.554E+01 -.437E+04   -.746E+02 0.656E+01 0.437E+04   -.290E+01 -.131E+01 0.583E+01   -.186E-01 0.114E-02 -.957E-01
   0.718E+02 0.494E+02 0.301E+04   -.716E+02 -.487E+02 -.301E+04   0.873E+00 -.177E+01 0.414E+00   0.347E-02 0.586E-02 -.776E+00
   -.718E+02 0.494E+02 0.301E+04   0.716E+02 -.487E+02 -.301E+04   -.873E+00 -.177E+01 0.414E+00   -.347E-02 0.586E-02 -.776E+00
   -.162E+02 -.510E+02 0.227E+03   0.162E+02 0.498E+02 -.226E+03   -.407E+00 0.190E+01 -.419E+00   0.971E-03 0.295E-02 -.762E+00
   0.162E+02 -.510E+02 0.227E+03   -.162E+02 0.498E+02 -.226E+03   0.407E+00 0.190E+01 -.419E+00   -.971E-03 0.295E-02 -.762E+00
   0.173E+02 0.329E+02 -.259E+04   -.165E+02 -.329E+02 0.259E+04   0.137E+00 -.360E+00 -.167E+01   -.251E-02 -.117E-01 -.608E+00
   -.173E+02 0.329E+02 -.259E+04   0.165E+02 -.329E+02 0.259E+04   -.137E+00 -.360E+00 -.167E+01   0.251E-02 -.117E-01 -.608E+00
   -.893E+02 0.222E+02 0.213E+04   0.952E+02 -.245E+02 -.213E+04   -.211E+01 0.221E+01 0.637E+01   -.522E-01 -.248E-02 -.237E+00
   0.893E+02 0.222E+02 0.213E+04   -.952E+02 -.245E+02 -.213E+04   0.211E+01 0.221E+01 0.637E+01   0.522E-01 -.248E-02 -.237E+00
   0.760E+02 -.175E+02 0.165E+04   -.778E+02 0.186E+02 -.165E+04   0.162E+01 -.179E+00 -.345E+01   0.313E-01 0.285E-02 -.539E+00
   -.760E+02 -.175E+02 0.165E+04   0.778E+02 0.186E+02 -.165E+04   -.162E+01 -.179E+00 -.345E+01   -.313E-01 0.285E-02 -.539E+00
   0.697E+02 0.281E+02 0.101E+04   -.745E+02 -.298E+02 -.101E+04   0.516E+00 0.151E+01 -.457E+01   -.774E-02 -.126E-02 -.449E+00
   -.697E+02 0.281E+02 0.101E+04   0.745E+02 -.298E+02 -.101E+04   -.516E+00 0.151E+01 -.457E+01   0.774E-02 -.126E-02 -.449E+00
   0.683E+02 -.283E+02 0.751E+03   -.732E+02 0.297E+02 -.749E+03   -.862E+00 -.222E+01 -.178E+01   -.779E-02 0.120E-02 -.429E+00
   -.683E+02 -.283E+02 0.751E+03   0.732E+02 0.297E+02 -.749E+03   0.862E+00 -.222E+01 -.178E+01   0.779E-02 0.120E-02 -.429E+00
   -.437E+02 0.173E+02 0.111E+03   0.459E+02 -.179E+02 -.109E+03   -.267E+01 -.220E+01 -.460E+01   0.495E-02 0.883E-03 -.407E+00
   0.437E+02 0.173E+02 0.111E+03   -.459E+02 -.179E+02 -.109E+03   0.267E+01 -.220E+01 -.460E+01   -.495E-02 0.883E-03 -.407E+00
   -.500E+02 -.691E+01 -.486E+03   0.530E+02 0.689E+01 0.484E+03   -.523E+01 0.405E+00 0.534E+01   0.942E-02 0.762E-03 -.408E+00
   0.500E+02 -.691E+01 -.486E+03   -.530E+02 0.689E+01 0.484E+03   0.523E+01 0.405E+00 0.534E+01   -.942E-02 0.762E-03 -.408E+00
   -.460E+02 0.663E+01 -.760E+03   0.498E+02 -.654E+01 0.762E+03   -.422E+01 0.131E+01 0.803E-02   0.856E-02 0.173E-02 -.406E+00
   0.460E+02 0.663E+01 -.760E+03   -.498E+02 -.654E+01 0.762E+03   0.422E+01 0.131E+01 0.803E-02   -.856E-02 0.173E-02 -.406E+00
   0.427E+02 -.159E+02 -.140E+04   -.457E+02 0.182E+02 0.140E+04   0.292E+01 -.710E+01 0.223E+01   -.225E-01 0.109E-01 -.433E+00
   -.427E+02 -.159E+02 -.140E+04   0.457E+02 0.182E+02 0.140E+04   -.292E+01 -.710E+01 0.223E+01   0.225E-01 0.109E-01 -.433E+00
   0.490E+02 0.407E+01 -.203E+04   -.525E+02 -.435E+01 0.203E+04   0.234E+01 -.119E+01 -.997E-01   -.357E-01 -.278E-02 -.138E+00
   -.490E+02 0.407E+01 -.203E+04   0.525E+02 -.435E+01 0.203E+04   -.234E+01 -.119E+01 -.997E-01   0.357E-01 -.278E-02 -.138E+00
   0.687E+02 -.877E+01 -.224E+04   -.744E+02 0.858E+01 0.225E+04   0.511E+01 -.257E+01 -.370E+01   -.530E-01 0.254E-02 0.118E-02
   -.687E+02 -.877E+01 -.224E+04   0.744E+02 0.858E+01 0.225E+04   -.511E+01 -.257E+01 -.370E+01   0.530E-01 0.254E-02 0.118E-02
   0.125E-10 -.241E+01 0.464E+02   -.995E-13 -.711E-14 0.909E-12   0.000E+00 -.184E+02 -.171E+02   -.159E-11 0.152E-01 -.155E+02

 POSITION                                       TOTAL-FORCE (eV/Angst)
      0.00000      2.87365      0.10000        -1.113337      1.530133      2.244990
      2.76835      0.00000      0.10000         1.113337      1.530133      2.244990
      2.76835      0.00000      3.94645        -0.073982      0.563223      0.192623
      0.00000      2.87365      3.94645         0.073982      0.563223      0.192623
      5.53598      2.87011      7.83612        -0.164783      0.630467     -0.842258
      2.76907      5.74376      7.83612         0.164783      0.630467     -0.842258
      2.70964      0.01813     11.63803        -1.069825      0.311264     -2.228437
      0.05871      2.89178     11.63803         1.069825      0.311264     -2.228437
      2.81154      3.15527      2.02323         1.083999     -0.445070     -0.559707
      5.49351      0.28162      2.02323        -1.083999     -0.445070     -0.559707
      2.72516      2.59203      5.86967        -0.456290      1.374963     -0.225277
      0.04319      5.46568      5.86967         0.456290      1.374963     -0.225277
      2.82136      3.12749      9.76906         0.944921      0.216815      0.239791
      5.48369      0.25384      9.76906        -0.944921      0.216815      0.239791
      4.28762      4.63577      0.39541         3.736506      0.488580      1.376994
      4.01743      1.76212      0.39541        -3.736506      0.488580      1.376994
      2.35587      5.67488      2.02323        -0.163684      1.494293     -2.842836
      0.41248      2.80123      2.02323         0.163684      1.494293     -2.842836
      4.01743      1.76212      3.65104        -4.255572      0.457128     -6.374057
      4.28762      4.63577      3.65104         4.255572      0.457128     -6.374057
      1.24908      1.11153      4.24186        -5.741336     -0.175820      0.128379
      1.51927      3.98518      4.24186         5.741336     -0.175820      0.128379
      3.18083      0.07242      5.86967        -0.439058     -2.220075     -3.641744
      5.12422      2.94607      5.86967         0.439058     -2.220075     -3.641744
      1.59847      4.00208      7.45132        -2.160236      1.002515      2.920260
      1.16988      1.12843      7.45132         2.160236      1.002515      2.920260
      4.38533      4.64278      8.07335        -0.366543      2.019048      0.897898
      3.91972      1.76913      8.07335         0.366543      2.019048      0.897898
      2.37991      0.02052      9.69423        -0.113172     -4.233580      2.066554
      0.38844      2.89417      9.69423         0.113172     -4.233580      2.066554
      3.98137      1.73159     11.27959        -1.210622     -0.867956      2.382216
      4.32368      4.60524     11.27959         1.210622     -0.867956      2.382216
      1.18150      1.10513     11.87903        -0.667704     -2.145928      4.264613
      1.58685      3.97878     11.87903         0.667704     -2.145928      4.264613
    total drift:                                0.000000    -20.760348     13.723165

  FREE ENERGIE OF THE ION-ELECTRON SYSTEM (eV)
  free  energy   TOTEN  =      -278.12685573 eV

  energy  without entropy=     -277.89377223  energy(sigma->0) =     -278.01031398

 d Force = 0.2808468E+00[ 0.139E+00, 0.423E+00]  d Energy = 0.5718533E+00-0.291E+00
 d Force = 0.6663834E+00[ 0.545E+00, 0.787E+00]  d Ewald  = 0.6676193E+00-0.124E-02

 stress matrix after NEB project (eV)
      4.39660      0.00000      0.00000
      0.00000     -8.23338      5.86696
      0.00000      5.86326    -19.59864
  FORCES: max atom, RMS     4.820556    2.181389
  FORCE total and by dimension   12.719575    4.264613
  Stress total and by dimension   23.238420   19.598638

 vacuum level on the upper side and lower side of the slab         6.626         5.844

 total charge

[...]

 magnetization (x)

# of ion       s       p       d       f       tot
    1       -0.006  -0.002   0.183   0.000   0.175
    2       -0.006  -0.002   0.183   0.000   0.175
    3        0.019   0.024   2.642   0.000   2.685
    4        0.019   0.024   2.642   0.000   2.685
    5        0.019   0.024   2.639   0.000   2.683
    6        0.019   0.024   2.639   0.000   2.683
    7       -0.007  -0.003  -0.341   0.000  -0.351
    8       -0.007  -0.003  -0.341   0.000  -0.351
    9       -0.001  -0.001   0.012   0.011   0.021
   10       -0.001  -0.001   0.012   0.011   0.021
   11        0.000  -0.001   0.012   0.014   0.026
   12        0.000  -0.001   0.012   0.014   0.026
   13        0.000  -0.000   0.008   0.005   0.014
   14        0.000  -0.000   0.008   0.005   0.014
   15       -0.001   0.010   0.000   0.000   0.009
   16       -0.001   0.010   0.000   0.000   0.009
   17       -0.001  -0.007   0.000   0.000  -0.008
   18       -0.001  -0.007   0.000   0.000  -0.008
   19        0.001  -0.003   0.000   0.000  -0.002
   20        0.001  -0.003   0.000   0.000  -0.002
   21        0.001  -0.003   0.000   0.000  -0.002
   22        0.001  -0.003   0.000   0.000  -0.002
   23       -0.000   0.031   0.000   0.000   0.031
   24       -0.000   0.031   0.000   0.000   0.031
   25        0.001  -0.015   0.000   0.000  -0.014
   26        0.001  -0.015   0.000   0.000  -0.014
   27        0.000  -0.008   0.000   0.000  -0.008
   28        0.000  -0.008   0.000   0.000  -0.008
   29        0.001   0.009   0.000   0.000   0.010
   30        0.001   0.009   0.000   0.000   0.010
   31       -0.000   0.012   0.000   0.000   0.012
   32       -0.000   0.012   0.000   0.000   0.012
   33        0.001   0.048   0.000   0.000   0.049
   34        0.001   0.048   0.000   0.000   0.049
tot          0.058   0.228  10.314   0.060  10.659